#===============================================================================
# Created using the Atomic Simulation Environment (ASE)

# Thu May 11 09:00:36 2023

#=======================================================
lattice_vector 16.5841519999999996 0.0000000000000000 0.0000000000000000 
lattice_vector 0.0000000000000000 17.2347563186669994 0.0000000000000000 
lattice_vector 0.0000000000000000 0.0000000000000000 16.1779175999999900 
atom 0.1041367411455912 15.3073707192839059 2.6627691222389664 Ga
atom 1.6260446422926489 12.4256700310739809 13.4641628347386213 Ga
atom 1.5790567706388288 12.4865083343205256 8.0779943122104640 Ga
atom 1.6780845198737830 12.4257961325347068 2.6545773930595162 Ga
atom 3.3144471639908142 9.5384205892800242 13.4892309393232512 Ga
atom 3.3417076067067653 9.5766703758225233 8.1362740666074114 Ga
atom 3.3097672173386772 9.5489676994737103 2.6697878289201231 Ga
atom 4.9289965034373191 6.6813538003258417 13.4791542412950989 Ga
atom 4.9902706757261983 6.7325755560494702 8.0316211399127706 Ga
atom 4.9261315770977152 6.7495275495109821 2.7282774721765426 Ga
atom 6.6875755074182566 3.8464179239531289 13.4621378851783753 Ga
atom 6.6529750478926006 3.8490621673782015 8.0121947325598750 Ga
atom 8.2606722302162705 6.6940380635877901 13.4634003358844812 Ga
atom 8.3020481660888059 6.7312285567086612 8.0205332451552120 Ga
atom 8.3223408297458850 6.7391734696959142 2.6303801468056220 Ga
atom 9.9844389522060197 3.8114013114242367 13.4526039132009956 Ga
atom 9.9571398940283071 3.8644299208530772 8.0764503176864650 Ga
atom 9.9474699316232620 3.8295846374239204 2.6760014390028224 Ga
atom 11.6141140856967375 0.8856265841540629 13.4375718325618614 Ga
atom 11.5683279684339517 0.9645275080352587 8.1265216813334398 Ga
atom 11.6677612880007135 0.9521663106596689 2.6600325190402279 Ga
atom 0.0011305174165400 15.3350052797411287 13.4885199570773988 Ga
atom 16.5816650046006906 15.3565633823164678 8.0671857185197702 Ga
atom 3.2620520777798951 3.9292809426615545 8.0599583683076741 Ga
atom 3.3586884097859304 3.8577765204143333 2.7467642996657640 Ga
atom 5.0145616920268807 0.9848486931618781 13.3857533496489989 Ga
atom 5.0036458473343943 0.9516032936652703 8.0265729254595879 Ga
atom 4.9932912195184498 0.8708652968792896 2.7263165982199942 Ga
atom 0.0165524862251464 3.8284385487326289 13.4885844257223138 Ga
atom 0.0234883424766977 3.8596198656320628 8.0766939400702746 Ga
atom 16.5280677860421008 3.8058481422615098 2.6883198620986910 Ga
atom 1.7178786421714236 0.9642901193135759 13.4601353933171932 Ga
atom 1.7304114218887339 0.9021348259845748 8.0234297212294603 Ga
atom 1.7119920655870704 1.0233489521256556 2.7895173463633207 Ga
atom 6.6098010119954171 3.8527125074880941 2.6719154785182355 Ga
atom 8.3441989420555807 1.0384818729862397 13.5214683507110536 Ga
atom 8.2733540372511989 0.9750930178896828 8.1378528506232097 Ga
atom 8.3366382022109100 0.8896670755887486 2.6363937667218265 Ga
atom 16.5739937215817079 9.5455517979920970 13.4856895129260668 Ga
atom 16.5741714233359545 9.6168473971535029 8.1016775972665052 Ga
atom 0.0377695301934824 9.5759126188287222 2.7106582223510483 Ga
atom 1.5763164760443364 6.6744025017697588 13.5533757389710647 Ga
atom 1.6317357780577055 6.7449947513921913 8.0417556140812625 Ga
atom 1.6698722340581700 6.7176852658642883 2.6744764683406230 Ga
atom 3.3456262647741140 3.8832595338327307 13.4818417681239762 Ga
atom 11.5724694700075030 12.4349629863610804 2.6589468285450937 Ga
atom 13.2532238011723820 9.5672230045013151 13.4765480505490558 Ga
atom 13.3148085933406293 9.5871828937424723 8.1081703959531719 Ga
atom 13.2537365896258468 9.5785809761455560 2.7330848017050431 Ga
atom 14.9006279369915475 6.7153424763987335 13.4516502670679774 Ga
atom 14.8968973725712814 6.7666829646467272 8.0933946875913936 Ga
atom 14.8589318383547280 6.7206176487372913 2.7418714584949084 Ga
atom 6.6124563473435920 15.4006992299410594 13.4414008700127603 Ga
atom 6.5992564597451624 15.3330469711058086 8.1574360358430340 Ga
atom 6.6416470202655669 15.2970366464874132 2.7305730023802859 Ga
atom 8.3008669889351214 12.4384965546895092 13.4814995008704486 Ga
atom 8.2811592136830789 12.4396926560437766 8.1514176074975264 Ga
atom 13.3367003804189022 15.3187992597833151 13.4815719501937430 Ga
atom 13.2440414339893877 15.3592420029746410 8.1664695667487042 Ga
atom 13.2802537726996004 15.2634463647046310 2.7108396575442129 Ga
atom 14.9588157145757563 12.4888236346284387 13.5204986466413715 Ga
atom 14.8793846053226790 12.4480048810758017 8.1014182573051521 Ga
atom 14.9764831211593119 12.4605527459186067 2.7081119700091292 Ga
atom 9.9133109937982358 15.3053339355912765 13.5318383418077719 Ga
atom 9.9106608804711591 15.3027989477070498 8.0770326971167314 Ga
atom 9.9437125737752137 15.3045035152152966 2.7494405218270530 Ga
atom 11.6535250620208810 12.4472667168277056 13.5432917428982371 Ga
atom 11.6856930182092587 12.4406806900535347 8.0303786926881280 Ga
atom 14.9245524511504630 1.0199474071858872 8.0876129396736047 Ga
atom 14.9056090040454947 0.8725600733748653 2.6918968599285571 Ga
atom 3.3474913468806986 15.3705907575801266 13.5212684814013677 Ga
atom 3.3147157151808315 15.3110201933812462 8.1557993717065642 Ga
atom 3.3172256144579264 15.3206215006627673 2.6980819036939017 Ga
atom 5.0272767627231909 12.4449372956265307 13.5486936711790751 Ga
atom 4.9431541256430975 12.4636342706135288 8.1078379977490176 Ga
atom 5.0552378819862547 12.4359290820108193 2.6749026663232760 Ga
atom 6.6527427534037233 9.5629117073654282 13.5183140549907304 Ga
atom 6.6590085746671814 9.6255410163172712 8.1200234955687876 Ga
atom 6.6454683061528144 9.5202805411989342 2.7066746968255875 Ga
atom 8.2853863702132635 12.4519020022844433 2.7509671464030672 Ga
atom 9.9648892559831861 9.5908278999158902 13.4908861720326936 Ga
atom 10.0112864394599761 9.5920367261221298 8.1033473137086904 Ga
atom 9.9306897692491241 9.5560113276485747 2.6625372829189740 Ga
atom 11.5846269664355930 6.6996925848745308 13.4590445792923799 Ga
atom 11.5925576724150563 6.6940281330816536 8.1323311513246015 Ga
atom 11.6546870223967307 6.7226112741517277 2.6521229157852191 Ga
atom 13.2854696814963624 3.8224626731681695 13.5016111831326917 Ga
atom 13.2330534213267530 3.8305837699299428 7.9919962112636114 Ga
atom 13.2828604752460873 3.8320032383417377 2.7047754292313511 Ga
atom 14.9927546203206266 0.9417412609833589 13.4222812143011563 Ga
atom 6.6196848665074697 7.6810556964227628 5.3820888476867825 Ga
atom 8.2709210690362589 4.7733390249467664 16.0977420539197453 Ga
atom 8.3263741595783571 4.7828266661418155 10.7364655895482333 Ga
atom 8.2879236684042024 4.7212019546478121 5.3973107273104466 Ga
atom 9.9760595917602615 1.9305155307753759 16.1527041139326784 Ga
atom 9.9116269039832883 1.8813454848747517 10.7688814430122211 Ga
atom 9.8947522567685535 1.9192306350044557 5.3891365998886398 Ga
atom 0.0390313554431694 13.4136458064044231 16.1585506929614624 Ga
atom 0.0392521104457471 13.3675297190832403 10.7616792618114072 Ga
atom 0.0066005598115705 13.3530844853669439 5.3513656081651044 Ga
atom 1.6447697277259916 10.5142638929573096 0.0459200658645737 Ga
atom 1.7216010927684584 10.5238146776007966 10.7613022281870752 Ga
atom 1.6651315101882138 16.3014254671674763 0.0208207018770633 Ga
atom 1.6871333624993055 16.3227769332401849 10.8249779137853874 Ga
atom 1.6104197595861469 16.2095916666534841 5.3866420079236335 Ga
atom 3.3152472917812896 13.4474542750245352 0.0335236559004967 Ga
atom 3.3562641579541768 13.3661923142668151 10.7911628447471344 Ga
atom 3.3006333465459203 13.3508298255251816 5.4017123801872371 Ga
atom 4.9227365064559017 10.5127058088872083 16.1118726639552321 Ga
atom 5.0046513770109140 10.4705394988957750 10.8045985807108806 Ga
atom 4.9722374150611106 10.5013383677513961 5.3622446526343781 Ga
atom 6.5875695334607922 7.7077685992914704 16.1643461209723185 Ga
atom 6.5857553835440923 7.6768488779049537 10.8031760212377552 Ga
atom 16.5490716201273500 7.7012337982930612 10.7833801427190288 Ga
atom 16.5523993797554994 7.7093719562847323 5.4573278587914658 Ga
atom 1.6356081609973949 4.6958397766810096 0.0099164059852258 Ga
atom 1.6781305497760648 4.7934317875906300 10.7593129358139610 Ga
atom 1.6556420390649178 4.7684460396530080 5.3481836401828939 Ga
atom 3.3398963683807406 1.8901989399412529 16.1681440110561319 Ga
atom 3.3336224582152214 1.8758382615398757 10.7730289186025612 Ga
atom 3.2730991178172153 1.8684914390858187 5.4349517523261115 Ga
atom 16.5300938230114767 1.9051478521592662 0.0458787720015270 Ga
atom 0.0167040216270919 1.9269704590695462 10.7320760119509995 Ga
atom 16.5788720311941553 1.8733836343104282 5.4037723104038706 Ga
atom 1.7040132722150627 10.4840269698844573 5.3929700792796353 Ga
atom 3.2599329584412375 7.6617563019853980 16.1174119034169756 Ga
atom 3.2557122922960566 7.5965865585328771 10.8011588985592191 Ga
atom 3.2708135774235414 7.6326640658375089 5.3730731748945253 Ga
atom 4.8836401173606907 4.8391134218256608 16.1132918109999750 Ga
atom 4.9318078371029763 4.8179006878609902 10.7062891837046426 Ga
atom 4.9991859231101037 4.7692156368854501 5.4119861051840212 Ga
atom 6.5976747017192174 1.9649489416802348 16.1408392538644740 Ga
atom 6.6184625961923507 1.9850091447076958 10.7510686442846559 Ga
atom 6.6525253562060094 1.8734542766930311 5.3024698465861944 Ga
atom 16.5315923665508642 7.6470341495371947 0.0664868821296114 Ga
atom 14.8793547946213831 10.5064638045739347 5.3625713179219643 Ga
atom 8.2681550401721289 16.2308685119217344 16.1061675577462609 Ga
atom 8.2949504751409169 16.2889668867729647 10.8042408952834013 Ga
atom 8.2753233428802755 16.2493293316223770 5.4189222200530276 Ga
atom 9.9410802327708776 13.3653573937446399 16.1687476070890739 Ga
atom 10.0973207740386588 13.4297522903182660 10.8489362473891244 Ga
atom 9.9112494502552817 13.4027728324197337 5.3632421564731736 Ga
atom 11.5999272867930046 10.5855271314553434 0.0650695546715585 Ga
atom 11.6494033226727840 10.5650840882394199 10.8146584118898286 Ga
atom 11.6054910889368372 10.5772486419929947 5.3800996756236632 Ga
atom 13.2715911431587887 7.6830460836424388 16.1343894863697912 Ga
atom 13.1762398404100942 7.7030251082810857 10.8306451491817892 Ga
atom 14.9428662843905098 16.2447157417394763 0.0103295753381977 Ga
atom 15.0230506272266435 16.2775282689512508 10.7705993052047670 Ga
atom 14.8549505782328932 16.2450395893604274 5.4315724173930944 Ga
atom 11.5864728852827277 16.2907124177519620 0.0438691883032905 Ga
atom 11.6428777241420427 16.2369876908069166 10.8049630528621528 Ga
atom 11.6315580301513890 16.2665989649837996 5.3962792946518592 Ga
atom 13.2559943356005174 13.4776488290638348 16.1509527718211565 Ga
atom 13.2707170953458604 13.4408206405161526 10.8294798767903107 Ga
atom 13.1643879276030074 13.3878274903349563 5.3450021607378790 Ga
atom 14.8872364699897961 10.5704679089936828 0.0115797645417092 Ga
atom 14.9152016991549861 10.5430983399926550 10.7908317299294190 Ga
atom 8.3745514630636038 10.5738113957287787 10.7772978520903884 Ga
atom 8.2780548496361082 10.4492801558910440 5.4058926251041726 Ga
atom 9.8830124648289459 7.6469288650210476 16.1449233262419298 Ga
atom 9.9388870565861982 7.6466573921891419 10.7910373936589341 Ga
atom 9.9240257721395011 7.6700134076896038 5.3485379296881579 Ga
atom 11.6373769225564345 4.7502475737313103 16.1707165777085109 Ga
atom 11.6912249909641339 4.8072320897478189 10.7822519220008672 Ga
atom 11.5707013751101133 4.8021240737382023 5.3430532504995858 Ga
atom 13.2641649906706203 1.8979253530699134 16.1752771448313446 Ga
atom 13.2608827702386023 1.9471987862243874 10.7733007137639074 Ga
atom 13.2932040718605879 1.8867223547912975 5.3995705795161086 Ga
atom 13.2572418969595471 7.6305795604711788 5.4299200663370444 Ga
atom 14.8737369297384205 4.7621568681150386 0.0342736221101421 Ga
atom 14.9798212451701716 4.7530453343722687 10.7562742057752949 Ga
atom 14.9278962364775349 4.8359037852548168 5.4658856699636349 Ga
atom 5.0810866891891227 16.2856618430652844 0.0116138267549015 Ga
atom 4.9677907030982063 16.2206687987183891 10.7487299050712899 Ga
atom 8.2788486930905467 10.5181882193808107 0.0539832313856320 Ga
atom 6.5945355297261408 13.3913490621828899 5.4737897132037334 Ga
atom 6.7208330419588611 13.3953345463728901 10.8603722381966588 Ga
atom 6.5989511163184034 13.4403910140886538 16.1701640092577641 Ga
atom 4.9208992955701909 16.2342834645998515 5.4716809587055932 Ga
atom 3.3326116782538966 9.5469276493180484 10.1896498312790662 N
atom 3.3007106515015958 9.5233477162142055 15.4980687054950366 N
atom 1.6725687238913294 12.3755427095878545 4.6811315848507427 N
atom 1.7058239088420153 12.3236646778020109 10.0477635715916751 N
atom 1.6504518204962544 12.3762068864074060 15.5688667902816675 N
atom 16.5331063357680854 15.3778210368522856 4.7543003677964872 N
atom 3.4170585687697512 9.5982031333109514 4.7653214110600910 N
atom 4.8861580051777009 6.7001257171554851 15.3873487476828856 N
atom 4.8844880239982169 6.7212060701380487 10.0433181092369335 N
atom 4.9079651435717837 6.7657641564397997 4.7522662014552699 N
atom 6.5413057532265784 3.8422772407376677 15.4274100014327544 N
atom 6.6647250613659992 3.8604151228943562 10.0025850641069827 N
atom 8.1652614447559255 6.6369344944025475 15.5229516571371331 N
atom 8.2610874995958365 6.7330679296721634 9.9899657544996128 N
atom 8.2924335633072221 6.6657918821570350 4.7760682112872965 N
atom 9.9466065619094746 3.9270105316288841 15.5401385035345836 N
atom 9.9578366839656312 3.8670741693325872 10.0624688620050460 N
atom 9.8669448563851798 3.8247852036119885 4.6916477520155242 N
atom 11.6211354299603915 0.9135693931547728 15.4511006267099500 N
atom 11.6647350473935401 0.9909642141029095 10.1330172246036323 N
atom 11.6054243610292520 1.0339403895976200 4.6676428734835218 N
atom 0.0317122170925825 15.2817573091917307 15.6144809136852398 N
atom 16.5725363314300971 15.2424509861621313 10.1405343573020605 N
atom 3.2812748508501794 3.8611954881745301 10.0554255931162064 N
atom 3.3686316334788411 3.7943969534797177 4.8397720617361282 N
atom 5.0562037244964593 1.0197532415638655 15.4676990297582702 N
atom 4.9961474576916398 1.0039870081257696 10.0942124694708610 N
atom 4.9032071933615438 0.8676533623203121 4.7311122500211695 N
atom 16.5684772166108338 3.8327274281511543 15.5443301602233905 N
atom 16.5507369090447440 3.8218529669446988 10.1251773043449109 N
atom 0.0464655602663401 3.7446265784251231 4.6862179759642322 N
atom 1.5938301460378190 0.9988894042870220 15.5057115219241606 N
atom 1.6937027352330922 1.0015550970962253 10.0831475316674375 N
atom 1.7149763547699421 0.9488670578111523 4.8009899412996813 N
atom 6.6931728355331792 3.7409020449939101 4.6206273593505287 N
atom 8.2987818837693315 0.9702901060766946 15.5480514544906114 N
atom 8.2320702746574685 0.9018267521222372 10.1966443812243810 N
atom 8.2704245161314418 0.8336176316199710 4.7528939410456834 N
atom 16.5516951753655484 9.5490344953537623 15.5107216252363092 N
atom 0.0968391107513841 9.6298965762801689 10.1027948002558770 N
atom 16.5161376453148918 9.5823497081429547 4.6306772907543561 N
atom 1.5831535928267497 6.6661875945641205 15.4879572228331490 N
atom 1.6500206822144530 6.7044100531389326 10.1444855301628678 N
atom 1.5253819197509129 6.6719572266614673 4.7651657420530329 N
atom 3.2888613093858323 3.8082042655072832 15.4977623858340738 N
atom 11.5519313813903750 12.4637274742062854 4.6716926611551512 N
atom 13.2794714546015982 9.6443653132365110 15.5017918566424466 N
atom 13.2244245531292677 9.5809513841938472 10.0959005367341614 N
atom 13.2147565303686605 9.5118233001093611 4.6853745928025647 N
atom 14.8834559451951964 6.6972555695866296 15.4571781683503549 N
atom 14.8634967622812866 6.8030877872654321 10.1843224729870236 N
atom 14.8719996718411327 6.6916726763893921 4.7490561962354088 N
atom 6.6369104046870859 15.3182112061762208 15.5297803409506319 N
atom 6.6066838111814503 15.2725560550990398 10.1625530175734795 N
atom 6.5510548261157027 15.2870116199569992 4.8133541515239457 N
atom 8.2378116016104421 12.4727923656360939 15.5209179943052895 N
atom 8.3848327225693762 12.4317449220412755 10.2253490274106866 N
atom 13.2701530796711094 15.3670818488589234 15.5751889125805647 N
atom 13.3142400949319466 15.3054918166893437 10.1046138252477746 N
atom 13.2362138994223688 15.3655733504481251 4.7566864507169768 N
atom 15.0206056476139036 12.5566425966721020 15.5491567974994194 N
atom 14.9532060889545733 12.4872936504888568 10.1213049729462785 N
atom 14.8234004610888821 12.5020241698514685 4.7055182420381962 N
atom 10.0427986495936512 15.2542158697651971 15.4570312177583382 N
atom 9.9510844821752258 15.3212077897811980 10.1921773145887293 N
atom 9.9498271456529821 15.2981195412165718 4.7303711665170400 N
atom 11.6243472911245398 12.4658279572707933 15.4992180444462093 N
atom 11.6510865344733059 12.4052895083663977 10.0791084124051462 N
atom 14.8964196310350854 1.0250490147903735 10.1331263527849842 N
atom 14.9279522623482457 0.8460635108816683 4.7336231977553895 N
atom 3.3691044739750589 15.3641513763904065 15.5985934262834611 N
atom 3.2457928280842014 15.2429336395313406 10.1348074253515339 N
atom 3.3035664995258101 15.3039419547072324 4.6834922398464558 N
atom 4.9965495024577775 12.4551203287454086 15.5374997741525807 N
atom 5.0856119576678820 12.3827835538331996 10.1283816062406906 N
atom 5.0021563715993631 12.4050609193171333 4.7133918716137497 N
atom 6.5809391292169206 9.6152640984649729 15.5419725821579213 N
atom 6.7717109336134405 9.6794584001708355 10.0503605207488800 N
atom 6.6731971206973970 9.5678658203839557 4.6940475459987931 N
atom 8.1861163981926364 12.4433985137315517 4.7458806546853847 N
atom 9.9271407137332481 9.5951118290696389 15.4960424420020164 N
atom 9.9694132923680776 9.5758565052403899 10.1296328593255804 N
atom 9.9126058663773371 9.5911351024451310 4.7295458034833491 N
atom 11.6710415401239107 6.6807234165402640 15.4757689571460766 N
atom 11.6333282853000863 6.6737748349335568 10.0708093216074275 N
atom 11.5958077338651773 6.6979028865971575 4.7032251412602051 N
atom 13.2516482374038258 3.8094472374473081 15.5905008365402686 N
atom 13.3164137922937638 3.7861555414631716 10.0971776987694550 N
atom 13.3483664396596904 3.8824583290881836 4.6806823477942006 N
atom 15.0081660212603047 0.9327861248730333 15.4514392167329966 N
atom 6.6938316624670939 7.5390988868223676 2.0238046980976327 N
atom 8.3638031337668952 4.8428968512961328 12.7499028914923098 N
atom 8.3358767842947774 4.8314093478149127 7.3744231586483586 N
atom 8.2570189418768454 4.8228200234712331 1.9571194452992482 N
atom 9.9213348167680540 1.9087099435164889 12.7920693530251892 N
atom 9.8826154045776224 1.9390704871399860 7.4262572363074417 N
atom 9.9750264247017348 1.9584356324236447 2.0296544502508791 N
atom 16.5465143156827885 13.4281274202496590 12.8831842707073339 N
atom 16.5540882001198675 13.4043927360392647 7.4691484333377254 N
atom 0.0606864640337090 13.3987246005679914 2.0216147393526138 N
atom 1.6820259496627978 10.4916057193979757 12.7629526900696764 N
atom 1.6219139419482747 10.5420592468413759 7.3480545366513423 N
atom 1.7075238580627812 16.2137360905728443 12.8481933356832041 N
atom 1.6279912066470699 16.2059038374485667 7.4503812455751950 N
atom 1.6929041671763081 16.3429660963732992 2.0840987217134650 N
atom 3.3274081302382386 13.3886239215368175 12.7898101069234311 N
atom 3.2830200364474251 13.4637719042612840 7.4406373098666174 N
atom 3.3310653771678127 13.3697952561282030 2.0600700033587303 N
atom 5.0112872519112956 10.4778183996237999 12.8720782447613669 N
atom 5.0148079403462908 10.5189750516687681 7.3103701196101252 N
atom 4.9417487776787334 10.5311085717362776 2.0452458620537710 N
atom 6.6309437891076408 7.6836468332668995 12.8706239815473644 N
atom 6.6348208700846838 7.8120823757496192 7.4157231061060696 N
atom 16.5798105491903414 7.8111087002878330 7.4260859728191599 N
atom 0.0023853586662110 7.6076723561507027 2.0121684028597890 N
atom 1.5990577167326538 4.7527174648411705 12.8474235529678946 N
atom 1.5993276626112136 4.8251672910169816 7.4343439174481905 N
atom 1.6966811140047926 4.8213066407570366 1.9778379808426099 N
atom 3.3729978117465400 1.9708692216326600 12.8565139046040056 N
atom 3.3802902992089718 1.9130246712311396 7.4357530954679163 N
atom 3.2280377677170353 2.0463811543593873 2.0733566265310657 N
atom 0.0283876096248189 1.9439184993572569 12.7801752266853601 N
atom 16.5739967435467150 1.8661707339593581 7.4471994841621809 N
atom 0.0340968799532830 1.9232033021942705 1.9589196702150860 N
atom 1.5963310754923843 10.4340663720519906 2.0556900734794818 N
atom 3.2076154095699305 7.6439026329573458 12.8732048430777102 N
atom 3.3024284316491839 7.7423749380572078 7.5034594593825581 N
atom 3.2966929126511539 7.6396330672782948 2.0125095692458186 N
atom 4.9958958603807062 4.8037571787567561 12.7034480541885095 N
atom 5.0162470544174456 4.7570353494335551 7.4222126104193107 N
atom 5.0072758238763084 4.8522393314853689 1.9414048811465887 N
atom 6.6598552080881133 1.9235888092542843 12.7422001306035035 N
atom 6.6763478728883792 1.9552884538810138 7.3233351539689755 N
atom 6.6685751506903657 1.8500243977246642 1.9866635692176722 N
atom 16.5765059615805121 7.5985607116699700 12.8743705564536608 N
atom 15.0322826671391514 10.5163708055496912 2.1264548034542092 N
atom 8.2094520619098450 16.3502062150186838 12.8341203002684772 N
atom 8.2555060040107886 16.3119254522961263 7.4645712635350625 N
atom 8.2465688906637684 16.2179060593928455 2.0115258243887935 N
atom 10.0423346732464083 13.4277121194003879 12.9365305462046543 N
atom 9.9562855782142243 13.3930047916709078 7.4182510205387944 N
atom 9.8987210285633918 13.3941107899314709 2.0101116040096638 N
atom 11.7157784064371135 10.5713380231440244 12.7779850798371069 N
atom 11.6907520514414571 10.5713462132870522 7.3756595882132761 N
atom 11.5301053918877301 10.6063128122939894 2.0778884718641701 N
atom 13.2668286578745374 7.7330700742945861 12.6963134098634978 N
atom 13.3301695877543054 7.6634794674293953 7.3348361391264154 N
atom 14.9156796004547765 16.2198205178713692 12.7808935787814146 N
atom 14.9081350210663750 16.2859972228474028 7.4558970546769778 N
atom 14.9630495288417897 16.2655994415033653 2.0762860918883330 N
atom 11.6049843726956681 16.1967292297465129 12.8757383301988018 N
atom 11.5232437048517706 16.3116673939634182 7.4352518946381618 N
atom 11.6173371135830461 16.2393429139039434 2.0929582242522566 N
atom 13.2511419308396388 13.3689612399078310 12.8013874373330676 N
atom 13.2691618630638928 13.4217704699081501 7.3634388702036375 N
atom 13.2732934750070939 13.3262888424533319 2.0971592427201800 N
atom 14.9750641151023007 10.5407403781494562 12.8487266830484543 N
atom 14.8454514222963461 10.5398004693124800 7.3812414087047991 N
atom 8.3090298623421575 10.5552920687272511 7.4826261239033531 N
atom 8.1980428516938524 10.5338449990044261 2.0560962029802248 N
atom 9.8742679585258770 7.6679441696361605 12.8124199441013182 N
atom 9.9855663221884914 7.7475683198268550 7.5047603927966700 N
atom 9.9553312918714898 7.7187373674277238 1.9503263899015892 N
atom 11.6957496873339277 4.8222613783354324 12.8517761785667126 N
atom 11.5629106080105775 4.7654303847967538 7.3255527453521170 N
atom 11.6448157084144395 4.7662119246884780 2.1134483382776641 N
atom 13.2235827798587593 1.9873352712680432 12.9021689830537465 N
atom 13.2571130152418970 1.9302698042882562 7.4106870346187472 N
atom 13.3581477087999438 1.8841378638598134 2.0445908358894966 N
atom 13.2840447022238308 7.6983446000177906 2.0027173782292134 N
atom 14.9590169915185101 4.8121807401107146 12.8433720363020303 N
atom 14.9380269372990231 4.8539435400698192 7.4314108040316569 N
atom 14.8863237745299077 4.8703407605818319 2.0544911915101345 N
atom 4.9455232856542626 16.2660390108703261 12.7919691289863877 N
atom 5.0238443500788366 16.2804675565417618 7.4957251669651948 N
atom 4.9900342240939075 16.2377532372439326 2.0437062198556935 N
atom 6.5804011802746327 13.4833176832446142 12.9261148053613670 N
atom 6.5624724453501804 13.3641499178927603 7.4711430681630127 N
atom 6.6700205973766762 13.3967184237225219 1.9538830720525828 N
atom 8.3198287970042060 10.4615369040274366 12.8715469897099819 N
