#===============================================================================
# Created using the Atomic Simulation Environment (ASE)

# Thu May 11 08:59:46 2023

#=======================================================
lattice_vector 16.0100851999999989 0.0000000000000000 0.0000000000000000 
lattice_vector 0.0000000000000000 16.6381685999439100 0.0000000000000000 
lattice_vector 0.0000000000000000 0.0000000000000000 15.6179127599999905 
atom 0.0845084031189061 14.7482631164765579 2.5932050625508860 Ga
atom 1.5643078337029797 11.9604081956497588 13.0440332789236493 Ga
atom 1.5345128227572522 11.9195937166130523 7.7657116434290288 Ga
atom 1.6570965638139359 11.9184414434150696 2.5638078864372842 Ga
atom 3.1006627804299107 9.1835190006598246 13.1523697053322977 Ga
atom 3.2477794929887311 9.2051777543344873 7.8687704703749572 Ga
atom 3.2597199289618541 9.2435823325849000 2.6607297354393444 Ga
atom 4.8617369170219833 6.3974270126467898 13.0271814125059802 Ga
atom 4.7974504811556642 6.3663128262882838 7.7691717203621087 Ga
atom 4.7401979225230670 6.4769141883973633 2.7131817969976271 Ga
atom 6.4813176561462091 3.7049164489174062 12.9875423268720915 Ga
atom 6.5673593944790083 3.8389241044776319 7.8252548851759203 Ga
atom 8.0648123996977183 6.4426112640210436 12.9969601281611293 Ga
atom 8.0395339942403030 6.6424910911051898 7.8189614774066536 Ga
atom 7.9413826697975036 6.6210123438943365 2.5336050050032668 Ga
atom 9.6751520999200586 3.6766242811404264 13.0834735226225156 Ga
atom 9.6470454177325902 3.9034279676571488 7.8320475969164409 Ga
atom 9.6088545172023867 3.7469507783124092 2.5616942208714968 Ga
atom 11.2357085641691636 0.8906948907549401 12.9811144327750174 Ga
atom 11.1865498838488229 0.9459554956276407 7.8401422674807124 Ga
atom 11.1604272044037955 0.9303386636809580 2.6502273285063738 Ga
atom 0.0362479995971797 14.7056774712052292 13.0804576887884352 Ga
atom 0.1093084872059235 14.8118920515432357 7.7354515008599636 Ga
atom 3.2540810736115557 3.7326957822605578 7.8567288587998529 Ga
atom 3.2202216008104618 3.7258628360324009 2.5696883859006574 Ga
atom 4.8112809980281961 0.9306289323677274 13.1233254794849277 Ga
atom 4.8354043326678280 0.9397288721004193 7.8165631440876719 Ga
atom 4.8716416289630180 0.9933701726804341 2.6029718277085805 Ga
atom 15.9935151458970619 3.6766840483304239 12.9431360899225982 Ga
atom 0.0396115910310049 3.8071753586073922 7.8434621086907805 Ga
atom 15.9092141395638240 3.6230722174325294 2.6458119540335536 Ga
atom 1.5961715731190520 0.9035027430230641 12.9978765536860390 Ga
atom 1.7658870936120159 0.9125325477362426 7.7773969541278998 Ga
atom 1.6200319402309706 1.0556934450441249 2.6424420745787387 Ga
atom 6.4228431627424376 3.6277656739979491 2.5933453924822429 Ga
atom 7.8827015571021475 0.8102638247371170 13.0045390139367161 Ga
atom 8.0296942564732756 1.0022690209439846 7.8738297402760855 Ga
atom 8.0282876440677011 1.0719044526636605 2.6551975397029426 Ga
atom 15.9608404641889798 9.0944988853391866 13.0405659549860538 Ga
atom 0.0556238475224420 9.2756063201321943 7.8010716780354912 Ga
atom 15.9855899843128242 9.2364970989007382 2.6293552171524044 Ga
atom 1.6208686402718644 6.3826721051156747 12.9102611263513545 Ga
atom 1.5664279048542340 6.4655897724122129 7.8343143698131508 Ga
atom 1.7112991511869786 6.5085610840178392 2.6835873671179957 Ga
atom 3.1738014791778766 3.6535551322927176 12.9605561240568985 Ga
atom 11.2448582201335832 11.9192178076106057 2.5890689162765468 Ga
atom 12.7959523502844554 9.1329617172741155 13.0002935942126108 Ga
atom 12.8157896712228627 9.2984976171371354 7.7828487212097688 Ga
atom 12.7895808959569521 9.3125710622249542 2.4276479768269188 Ga
atom 14.2807601716202015 6.3989144243120109 13.0228911002326910 Ga
atom 14.4298787435583371 6.4975575423407603 7.7919299434349050 Ga
atom 14.3049426647207607 6.4205917981335139 2.5886261823656600 Ga
atom 6.3948963636070495 14.6804640261528245 13.0162390743521676 Ga
atom 6.4170561685588678 14.8987658850706204 7.7086021960128894 Ga
atom 6.4231185126728922 14.7297949597866484 2.6105055767704681 Ga
atom 8.0380359030759418 11.9933034879833045 12.9044826862671940 Ga
atom 7.9852374629223055 12.0232662900270046 7.8445428125064129 Ga
atom 12.7380686686323941 14.6412834139743566 13.0719409149923909 Ga
atom 12.8852228928538199 14.8754847555767231 7.8423412954131066 Ga
atom 12.8087199812946846 14.8236653119486235 2.5996393917335694 Ga
atom 14.3786061113872208 11.9041340239086129 12.9071935542660032 Ga
atom 14.4288747560630419 11.9681553678854868 7.8193576949541326 Ga
atom 14.4514337290145782 11.9202817219141597 2.5540082853686088 Ga
atom 9.5191742015471057 14.8502487589753969 12.9722748352705377 Ga
atom 9.7277499856042713 14.9020709580367878 7.7301655165717174 Ga
atom 9.6579723104556212 14.7529209191266233 2.7797567796527480 Ga
atom 11.2288765510520907 11.8917461474732082 12.9363282072544497 Ga
atom 11.3649994961803529 12.0970789670201988 7.7613166376284370 Ga
atom 14.4326378519661347 0.9765989342495220 7.8805910083071398 Ga
atom 14.3437643907673422 0.9225072943564083 2.5699367229281549 Ga
atom 3.2765195404346734 14.6601876856296744 13.1025175889546492 Ga
atom 3.2570861126997199 14.8720576065310155 7.8075859086542980 Ga
atom 3.2124004009115561 14.6562089691127451 2.6016702219286838 Ga
atom 4.8665833750337777 11.9796364330680678 13.0872814526437793 Ga
atom 4.7875127871866470 12.0601171942350742 7.9667652183326920 Ga
atom 4.8502091354811760 12.1026284740400154 2.5753373505607717 Ga
atom 6.3923559229992497 9.2823461208604829 13.0200578459845637 Ga
atom 6.4267694374996500 9.4398559732746197 7.8364756812903940 Ga
atom 6.3563987751793309 9.3240465397716061 2.6218078631578821 Ga
atom 8.0104129288187327 12.0474731719363959 2.6606953866370846 Ga
atom 9.5145323378423416 9.1919316341227688 12.9624389196350833 Ga
atom 9.6596371235125211 9.3690903098287155 7.8247818922323491 Ga
atom 9.5537165086047384 9.2639468944251231 2.5546337557759609 Ga
atom 11.1621117787194262 6.4516605304239931 12.8867600678731424 Ga
atom 11.2626014142602795 6.5068485349140515 7.7415652791686069 Ga
atom 11.1155929219713112 6.5050456929891221 2.5094472079078165 Ga
atom 12.8122204371409865 3.6220177585635867 12.9029195278698605 Ga
atom 12.8882287979644747 3.7262480723492395 7.8734857366345006 Ga
atom 12.7593539463957413 3.6326570345635485 2.5220578304873449 Ga
atom 14.3181902855850502 0.7894143194500289 13.0751481912571190 Ga
atom 6.4605559998793121 7.4130617456537147 5.1980329569450614 Ga
atom 7.9075008442288972 4.6621854049954763 15.5939512422669626 Ga
atom 7.9907994775773030 4.6148578904529600 10.4524456375599772 Ga
atom 8.0563263649556482 4.7936698938404003 5.0677957382272103 Ga
atom 9.5982193316852342 1.8157326651228447 15.5149706928861182 Ga
atom 9.5407777810704264 1.8765756688137056 10.4590140469908359 Ga
atom 9.6172503269743466 1.8858345513454839 5.1075742520575904 Ga
atom 0.0354921101600232 13.0323793244461932 0.0252445528997567 Ga
atom 0.0638143407234372 12.9467947980964144 10.4720541567232690 Ga
atom 0.0348304399881344 12.8681341457823244 5.1575742503433393 Ga
atom 1.5132070762368623 10.1923892661087923 0.1404646318458187 Ga
atom 1.5649804644216230 10.0710234868770545 10.4986933584370945 Ga
atom 1.6204442942032993 15.7233117312426689 0.0489337260048338 Ga
atom 1.5093110313992810 15.6268847835907874 10.4866981360471740 Ga
atom 1.7227964994640621 15.6843819325806191 5.2648425704495825 Ga
atom 3.2706409196193293 12.8310055991357554 0.0062169689380999 Ga
atom 3.1553054630421209 12.9150563301232282 10.4983585486098630 Ga
atom 3.2194286597201538 12.9984166331672970 5.3056490927734767 Ga
atom 4.7663904622843392 10.1779983388669422 0.0037911562962817 Ga
atom 4.8295826557515174 10.2289071940322049 10.4498741417897758 Ga
atom 4.7754962672348995 10.1775031380392171 5.3186088540281169 Ga
atom 6.3577356003263628 7.4795108024949624 0.0093210867512693 Ga
atom 6.3046892796828393 7.3998931330361710 10.4281077524879109 Ga
atom 15.9808409202470774 7.3095574917314972 10.4182998307004002 Ga
atom 0.0512468467718529 7.4394122081586724 5.1245260255417930 Ga
atom 1.4042782410600396 4.6115172459325358 0.0365685454744810 Ga
atom 1.6054282727342180 4.6486347104833259 10.3582573685232511 Ga
atom 1.6000141758192978 4.4521806635152741 5.1582035531284740 Ga
atom 3.1843532867934381 1.8372132196777236 0.0785981947350293 Ga
atom 3.0882188858073971 1.8710261816591958 10.3941444623832648 Ga
atom 3.1477647554341064 1.9195154091634803 5.2323584270144776 Ga
atom 0.0706584457637910 1.8502630852214321 15.5783515059600894 Ga
atom 15.8994918096341529 1.8292081890594456 10.5060011044462556 Ga
atom 15.9844095641046735 1.7861229363252997 5.3013866873010711 Ga
atom 1.6433174328293707 10.0811566128572068 5.1101524785444044 Ga
atom 3.1326286618954740 7.3811004568477179 15.5355614892123377 Ga
atom 3.2240408689488955 7.4724471976524800 10.4738600555955692 Ga
atom 3.2279144644491717 7.2580206928550401 5.2748020070550563 Ga
atom 4.7385840991171726 4.6210842078051027 15.5717475932535159 Ga
atom 4.7865174523497434 4.5416602277719340 10.5148817414599485 Ga
atom 4.9213424034258457 4.5062248687114721 5.1273603354489987 Ga
atom 6.3670854890232951 1.7965532255744254 0.0512093121724897 Ga
atom 6.3743953386706291 1.7255575980427635 10.3277174088848049 Ga
atom 6.3694214601034664 1.9575871845170938 5.3440393308752521 Ga
atom 15.9673066210056671 7.3673342562913939 0.0171940771114662 Ga
atom 14.4141295726190410 10.1480989633356717 5.1900985865934404 Ga
atom 7.9722588668317576 15.7271556341738545 0.0541991751178144 Ga
atom 7.8689624844298320 15.7373818101121881 10.3324443844204925 Ga
atom 8.0752251304631262 15.7693993176333880 5.1564650903280089 Ga
atom 9.5963671945671951 12.9678383193370106 15.5974698394395030 Ga
atom 9.4665570726713089 12.8747498040593804 10.3086105135250516 Ga
atom 9.6802005157894708 12.9706653446444555 5.2374617818928204 Ga
atom 11.1797754821716051 10.1619155490406747 0.0102930004056394 Ga
atom 11.2536757073167255 10.1129190936625744 10.3946420305762608 Ga
atom 11.3208335288564683 10.1331100448930904 5.1288961598577005 Ga
atom 12.7471991551544068 7.3451791683834848 15.5941857544300646 Ga
atom 12.8892227631637262 7.4051780549936472 10.3628013364737726 Ga
atom 14.4868081140733889 15.7665985508636552 0.0286763061917371 Ga
atom 14.3553267394295041 15.7777315311879054 10.5082751390503386 Ga
atom 14.5600975622837741 15.7211394223962131 5.1177556331787617 Ga
atom 11.2265336796452093 15.5955319096138005 0.0022073740428309 Ga
atom 11.0376236246951631 15.6886044032929313 10.4308254124108686 Ga
atom 11.3771319172336014 15.8318204706571724 5.2180418395724280 Ga
atom 12.9568132486265633 12.8968717335471190 0.0054622878793635 Ga
atom 12.7974414778495955 12.9232267575457573 10.3372856485438813 Ga
atom 12.8158993589332546 12.9994129092146835 5.1994656185305939 Ga
atom 14.5077835616279529 10.1873661059903089 15.5587252860930931 Ga
atom 14.4453392317233309 10.0962202847804097 10.4163385713038714 Ga
atom 8.0114155103606990 10.2194295693788817 10.4249292562860703 Ga
atom 7.9495781227389379 10.2630725536237382 5.2766508587314611 Ga
atom 9.4814428068420611 7.4819947936784477 15.5340419852127667 Ga
atom 9.5282592924056022 7.3241282685721654 10.3344501712178438 Ga
atom 9.5623326325802100 7.5307731903389579 5.2775742807654922 Ga
atom 11.1611773724818679 4.7361717069958837 15.5451187203963173 Ga
atom 11.1685308803521774 4.6450296200447321 10.4528734519477453 Ga
atom 11.2092960985426018 4.7007444312265916 5.1400843746286444 Ga
atom 12.7515261918230642 1.7922655512466958 15.5233784133673485 Ga
atom 12.7468553598013870 1.8256462026575435 10.3433181695351202 Ga
atom 12.8380551564352299 1.9346796757264064 5.2254016053196564 Ga
atom 12.7747769743987316 7.3927099676937669 5.1924998100316984 Ga
atom 14.3689517476353448 4.4831321535838864 15.5308487770292523 Ga
atom 14.3579717702273477 4.5810904143442066 10.3604825476959945 Ga
atom 14.3419877797963711 4.7221264558140188 5.1525262596066597 Ga
atom 4.7749391934494376 15.6609168134796288 0.0655793808495531 Ga
atom 4.6742876001966547 15.6974714750397037 10.3773897595150792 Ga
atom 8.0245552210716085 10.2523640837059986 0.0371371410229045 Ga
atom 6.2918209700873957 12.8926579104181176 5.2222367337911786 Ga
atom 6.3389538514025805 13.0474085609992372 10.4435602401869545 Ga
atom 6.4957750286438136 12.9068609445094094 15.5732657628440947 Ga
atom 4.8204078678658773 15.7856093681359528 5.1751189290246646 Ga
atom 3.1490549514451027 9.2712235349265875 9.7885115465037185 N
atom 3.0613692089575912 9.2111183347549765 15.0700765576629543 N
atom 1.6696642519595284 12.0591696020992654 4.5344267352766217 N
atom 1.5984402919138503 11.9313942809883535 9.7648531006074641 N
atom 1.6827809891456524 12.0282970566977223 15.0565261603967713 N
atom 0.1002078016464503 14.8150493633669011 4.6225408557466272 N
atom 3.2089256414947123 9.1197676253134148 4.6087992023465034 N
atom 4.8480835475310560 6.4307055162452089 15.0419549910554533 N
atom 4.7498265885485074 6.4814967375094792 9.7175261892186189 N
atom 4.8541150609982333 6.3536213313560017 4.6557262920755651 N
atom 6.3816234245043342 3.5689783377108228 15.0325379936669243 N
atom 6.3841111992761332 3.6726708276759528 9.7248870964347365 N
atom 7.9910600646711138 6.5788719185603064 14.9842605737403005 N
atom 7.9928704994987569 6.4324218026535265 9.6286984469332637 N
atom 7.9866462607490192 6.6884266248011981 4.4830846669394759 N
atom 9.6506477060500107 3.7202531195314812 15.0851167775938730 N
atom 9.7112111373608574 3.6656141878179227 9.7388943352788075 N
atom 9.6432592297958202 3.8044879841155907 4.4438432381082276 N
atom 11.1488914933959968 0.8610928513748632 14.8660484040028535 N
atom 11.0696443096916415 0.8057086897079775 9.8120158909860873 N
atom 11.1725996484814658 1.0104714666105907 4.5189204913892134 N
atom 0.0325600762558639 14.9308517411530364 14.9627925343999770 N
atom 15.9305582807103843 14.7404510283186472 9.7916076017201377 N
atom 3.2336533759501953 3.6641146968243286 9.8283529666355545 N
atom 3.3088241128560933 3.7415395544201591 4.4476962432542644 N
atom 4.8184090939677917 0.8173834698754020 15.0133370098653653 N
atom 4.7678966369503248 0.8448015377827519 9.8908484517010269 N
atom 4.8668264129700036 1.0589441476545298 4.5850860065097132 N
atom 15.9469907908053870 3.6332621316670362 14.8896744453594057 N
atom 15.9396186646440157 3.6722657216773249 9.7670053684525175 N
atom 15.9178781581289570 3.6727981216279204 4.6126761848187625 N
atom 1.6893712686390021 0.8332128633802784 14.9721894299125502 N
atom 1.4801727887238376 0.8977232454321875 9.7955904515785779 N
atom 1.5061806202930594 0.9351203740789249 4.6633244235943589 N
atom 6.5210085322399705 3.6867318373394906 4.5238183874450488 N
atom 8.0439606807373334 0.8700878001034821 14.9365299900738844 N
atom 8.0223569626054196 0.8883718403305767 9.7893624602001541 N
atom 8.0448388461103981 0.9645319221351299 4.5716859245017778 N
atom 0.0104318316671995 9.1818992341722918 15.0414888063972008 N
atom 0.0032314822406332 9.1468384026581226 9.8891266950786942 N
atom 0.0719483244521769 9.2105837176968723 4.4907387910983214 N
atom 1.5444774568494055 6.5026447842073765 14.9396352201440408 N
atom 1.6210169536067378 6.4400656306246251 9.7635035959821401 N
atom 1.6588917679905659 6.3604639821042994 4.6536138318000173 N
atom 3.1546710754623795 3.5974968658512272 15.0212597781606245 N
atom 11.2547722436130169 12.0014712951867786 4.5256413151453181 N
atom 12.8833297638575299 9.2133538795055063 15.0600463792896431 N
atom 12.8048743754818943 9.2259426588137465 9.8304959460329489 N
atom 12.8305207490176407 9.2133465642569892 4.4370313151666370 N
atom 14.4282671996725362 6.3557501690487346 14.9122676754030046 N
atom 14.4762547405179589 6.4389318790860086 9.7966835882145187 N
atom 14.4339241432105290 6.4755593008704464 4.5314139484170468 N
atom 6.4347401160463722 14.8387204775963184 14.9563257142237003 N
atom 6.3977246887969121 14.8577858999363617 9.7192467013669290 N
atom 6.4641610324338856 14.7393556232648510 4.6231517951027010 N
atom 8.0285349538159796 11.9699497845684437 14.9343421856516638 N
atom 7.9674900502655985 12.1003849363464031 9.7521999417277936 N
atom 12.8882092228306711 14.7173912410637833 15.0118134561391425 N
atom 12.7477476416986857 14.8587453771810374 9.8476748367792606 N
atom 12.8978761943711060 14.8290420737060575 4.5300268750917105 N
atom 14.4874156140627672 12.0698932549752733 14.9392933496850659 N
atom 14.5035059763869310 11.9674193251408578 9.7174315879203235 N
atom 14.4009348631572820 11.9359159409741391 4.5637360237461246 N
atom 9.5172808511239744 14.8332003858711090 14.9353098282274832 N
atom 9.3767368207196871 14.7321591446158120 9.7727282751505662 N
atom 9.6372576822389249 14.8419879680205078 4.6684672996523222 N
atom 11.2238937437772837 12.0047781417802213 14.9168128044906769 N
atom 11.1736854366281584 11.9484853850496808 9.7959001955348057 N
atom 14.3846745625789847 0.9170031287016575 9.8024801054182902 N
atom 14.3370243408896023 0.8883634828899738 4.5001155013088905 N
atom 3.2830813460481707 14.7416609774688592 15.1245144895238219 N
atom 3.1024040821462746 14.8317554236963609 9.7872260647915805 N
atom 3.3884534901337386 14.7604567542645526 4.6184625888986357 N
atom 4.9305242846011854 11.9079686991121676 14.9948447490536001 N
atom 4.7725520736543805 12.0519822706932143 9.8952752126224226 N
atom 4.6713554370635704 11.9417251646646072 4.5034237125391732 N
atom 6.4177641056056345 9.1975171743557738 14.9744771136275006 N
atom 6.4297277389246936 9.2750216323455366 9.8239483396962441 N
atom 6.3094363463820695 9.2935599830444229 4.5752938615747132 N
atom 7.9493375941839206 12.0029449150228196 4.6395190912234439 N
atom 9.6029500690208618 9.3300656075592716 14.9093727782312069 N
atom 9.5836807839622082 9.2980478354530884 9.7763535909664334 N
atom 9.6542256010013698 9.3714193970608246 4.5670254027063502 N
atom 11.0517567606563940 6.4812637390858088 14.9736943179867019 N
atom 11.2285336902015001 6.4872376171107398 9.6975987592175255 N
atom 11.1667846789319132 6.6176603379139642 4.6063577363900219 N
atom 12.6740546203595912 3.6474997245830334 14.9690164351464041 N
atom 12.7988665785129623 3.7076091214323537 9.6981026158890664 N
atom 12.7747302601647696 3.8025485653368998 4.4887722746097474 N
atom 14.4412813013716193 0.9788195613423700 14.9180747936698772 N
atom 6.2787034047435926 7.4568716140271478 1.9437774302196720 N
atom 8.0234132218230130 4.5441613436926174 12.3788795444777495 N
atom 8.1082908062087942 4.8579502368269782 7.0004518430086895 N
atom 7.9811118348071624 4.6522036449152209 1.8841196207848598 N
atom 9.5639137791132303 1.7481393180388076 12.4385210370704069 N
atom 9.6519194367110881 2.0599246084665248 7.1716278222051573 N
atom 9.6851025502621120 1.8392266844754512 1.9753582244214569 N
atom 15.9671559495464663 12.9553602192012427 12.4282324310940595 N
atom 0.0464740234570910 12.9322399949641085 7.1862500705067704 N
atom 0.0120712999921853 12.9932362173981275 1.9351369640198408 N
atom 1.5584535868142528 10.0985224427666065 12.4563310236395992 N
atom 1.5832920109063104 10.1691289909087264 7.1041279634728660 N
atom 1.6756005783215286 15.5962242536762545 12.3072321744684334 N
atom 1.7453470694708273 15.6752243538612177 7.1929290748452317 N
atom 1.6766756072959967 15.8041412115103324 2.0372062836260039 N
atom 3.2036467138406062 12.8147342958514017 12.4685742657024363 N
atom 3.2059859320292623 12.9561206074021644 7.2133735502846630 N
atom 3.2150692873322431 12.9561238965517997 1.8666440047623956 N
atom 4.6979043665962381 10.1169011985696606 12.3493053560944652 N
atom 4.7890160564826187 10.2205645863946391 7.1948663732221991 N
atom 4.8541413730223528 10.2134568469111979 1.8906644243193820 N
atom 6.4691188979157177 7.3035996347826302 12.3907677312670828 N
atom 6.3579764043068776 7.4456015073223716 7.2318543496884296 N
atom 15.9264662627696278 7.4073125426230968 7.2508958748762078 N
atom 0.0076539314319850 7.2993060390436693 2.0263301305468695 N
atom 1.5414477264089084 4.5681016593380930 12.3568823876592830 N
atom 1.7407460106993506 4.6594807888796801 7.1147428959392158 N
atom 1.6186350651111829 4.5251722179599421 2.0057040913506707 N
atom 3.2052843924228229 1.8086687810161890 12.4636370696845624 N
atom 3.2160669642657789 1.9544170832295520 7.1176260074003350 N
atom 3.2358183409989700 1.9126399976826818 1.9595471912449145 N
atom 15.9541625503202891 1.8256073220153020 12.4133623479564363 N
atom 15.9973585549345216 1.9106085701569095 7.2792908348901131 N
atom 15.9965664892414097 1.7987736070742617 1.9549442464201177 N
atom 1.5696466336707289 10.0527475742711996 2.0630204678947650 N
atom 3.1950678206586507 7.4156690129371619 12.4239979742596471 N
atom 3.2423029142517250 7.4000372565449268 7.2115097019264018 N
atom 3.2507618949516979 7.3351219085576540 1.9337906161382696 N
atom 4.7808163496865230 4.5944003200140484 12.4797140415183581 N
atom 4.8413797881032847 4.5427815139107786 7.1744547059221322 N
atom 4.8160041870084243 4.6851873824330648 1.9704539432787300 N
atom 6.4129380458962597 1.8529165847215836 12.3006632868034984 N
atom 6.4206691880367872 2.0004457119710159 7.2321337723257075 N
atom 6.4513123577111564 1.8057684008021297 1.9447027288199499 N
atom 0.0024358296256199 7.3613031891485443 12.3870662713958133 N
atom 14.4306582726144317 10.2109574117656603 1.9127293041088653 N
atom 7.9506240196906512 15.5646689370589311 12.3342207674525888 N
atom 8.0756607048275875 15.7222445879036812 7.1371117880449457 N
atom 7.9820453833963034 15.7818434248155537 1.9851019643607151 N
atom 9.6413233258670452 12.9135356595644311 12.3283910276038000 N
atom 9.6787543366994147 12.9633050535351479 7.1879991362777540 N
atom 9.6844077383632428 12.9991389592804456 2.0181298855940821 N
atom 11.2666279226078316 10.0355083828596037 12.3459137486289610 N
atom 11.2816884304391554 10.2803142928307718 7.0871753518836744 N
atom 11.2415509475205582 10.1535089710385282 1.9827409457148322 N
atom 12.7560787108605673 7.3599253852266191 12.3653867724712221 N
atom 12.8958459517168524 7.5196646105376814 7.1747667151400965 N
atom 14.3585586869182489 15.6525205535751795 12.4819196539894790 N
atom 14.4847290724871645 15.8410067114546376 7.1742586621504580 N
atom 14.4081469384674303 15.7512226569918408 1.9033336961506082 N
atom 11.1490355180408240 15.6917521732540202 12.3679120121531856 N
atom 11.2794506433231660 15.8518751434672662 7.1197533465018443 N
atom 11.2167479626697872 15.7518531669398847 1.9813039501222747 N
atom 12.8338262536720205 12.8215019174768692 12.2779603117734890 N
atom 12.9730948927279819 13.0631032221330976 7.1728071758854863 N
atom 12.8169184281153274 12.8994607466588764 2.0040328823118005 N
atom 14.3888257451725678 10.1059984441087902 12.3895679928457216 N
atom 14.5004337636666190 10.0698326043313209 7.1356603778677901 N
atom 7.9966837734861071 10.2483805527218497 7.1922851742256846 N
atom 7.9289025159027418 10.2263214207690272 2.0500558885140383 N
atom 9.6060705354602600 7.3504820316776458 12.1615893765852672 N
atom 9.5652201843774467 7.5708347762777022 7.1817788163512333 N
atom 9.6149233639042517 7.5317687707153977 1.8928173254052021 N
atom 11.1596064712006982 4.5435403890812385 12.3399655906422012 N
atom 11.2927246578156186 4.7378078025547747 7.0904014872684629 N
atom 11.1415523184193379 4.6603384600121602 1.9132396601145139 N
atom 12.8444397204400858 1.7442820794231511 12.3540949010101269 N
atom 12.8844996953772810 1.8545102421515418 7.2905459567290389 N
atom 12.6992044961687487 1.8792005227897752 1.8872102871484016 N
atom 12.7553986797411643 7.4773871609598519 1.8790940610197173 N
atom 14.4105935620958530 4.6239917314734287 12.3410769145666670 N
atom 14.4892611852601103 4.6676138325064827 7.1300665163655834 N
atom 14.3392919874681830 4.6220515549261538 1.9906506865813278 N
atom 4.8274719667934081 15.6763469844577585 12.3609909241356188 N
atom 4.8418282650565683 15.8138649984143242 7.1216207917200771 N
atom 4.7855236639250469 15.7837431235081471 2.0123446945995060 N
atom 6.3896122369670767 12.8164247366519053 12.2962922498803078 N
atom 6.3474950505819505 12.9016504183734888 7.2082368966872323 N
atom 6.4393593935652271 12.9661549826004094 1.9515902537935315 N
atom 7.9882849107007292 10.1780462111781400 12.3511210447383331 N
