#===============================================================================
# Created using the Atomic Simulation Environment (ASE)

# Thu May 11 08:59:49 2023

#=======================================================
lattice_vector 16.0100851999999989 0.0000000000000000 0.0000000000000000 
lattice_vector 0.0000000000000000 16.6381685999439100 0.0000000000000000 
lattice_vector 0.0000000000000000 0.0000000000000000 15.6179127599999905 
atom 0.0150897605813282 14.5948352082337092 2.4942102535147459 Ga
atom 1.4499829073559585 11.8643518594084423 13.1395839349000010 Ga
atom 1.5225699626944071 12.0214282820179932 7.7274273279349375 Ga
atom 1.6305071143579164 11.9134899664048497 2.7428440440527133 Ga
atom 3.1620367315642395 9.1529643369097151 12.9870227554887503 Ga
atom 3.3463553806298325 9.3066901433966631 7.8672175864431493 Ga
atom 3.1869210867579016 9.1234999226093194 2.6901908270236405 Ga
atom 4.8140013509722843 6.2904490646837239 12.8238292846504898 Ga
atom 4.8566251000225868 6.3583580280017626 7.7852768026206380 Ga
atom 4.7151072683311019 6.3593827597849693 2.5761371195701774 Ga
atom 6.3964629255240117 3.6273628595025720 12.8912203198914863 Ga
atom 6.4879480809261167 3.6193781121523552 7.7670709801726447 Ga
atom 8.0305124149644094 6.3984061230044533 13.0635801651884069 Ga
atom 7.9917881513763129 6.5346182008423410 7.8078027700460355 Ga
atom 7.9788046930886907 6.4228281355952763 2.5682445366708628 Ga
atom 9.7734465545378342 3.8635676326401005 13.1375494483124005 Ga
atom 9.5140780152684989 3.7959825695627778 7.6408612409674985 Ga
atom 9.5415009630421572 3.6183116658998888 2.5458164263711467 Ga
atom 11.1376502017868830 1.0452215299477796 12.9575053305293366 Ga
atom 11.2213604643001599 1.0332530121959911 7.8359713710045451 Ga
atom 11.2663810076053323 0.8565591755148527 2.6204392270176693 Ga
atom 0.0195534813607265 14.7682738539822669 13.1704133632481764 Ga
atom 0.2026713023886267 14.8966519865370728 7.9517812066858440 Ga
atom 3.1705716212772606 3.6947321662903438 7.7406069038580254 Ga
atom 3.2157214820503186 3.6301248276500790 2.6487928154388363 Ga
atom 4.7377379527769907 0.7536977297762715 13.0324953202541138 Ga
atom 4.7419879222009174 0.8681104015265727 7.6954669593753620 Ga
atom 4.8733950678617326 0.7342735417030706 2.5278621552421967 Ga
atom 15.9281595909549250 3.7717632046050129 12.9853988003073724 Ga
atom 15.8572248739748964 3.7059544041371755 7.7672676484952792 Ga
atom 0.0510730675644346 3.6231000979243020 2.5232111043352323 Ga
atom 1.4085376545343180 0.9376267733109530 12.9924553649927148 Ga
atom 1.5593844799184688 1.0648642753595254 7.7672344862142770 Ga
atom 1.5517237943324937 0.9119388178714707 2.5406500092519551 Ga
atom 6.5510961529385172 3.6540014624083201 2.5270774841015413 Ga
atom 8.1124288421209165 0.9262908272827733 13.0229664623691690 Ga
atom 8.0169336516134955 0.8827070604276188 7.8534544135317850 Ga
atom 8.1347564654787163 0.8368243529615057 2.5658779116686152 Ga
atom 0.0375991306527031 9.4053322013893883 13.0697360702880232 Ga
atom 0.1419492173810647 9.2844123580574731 7.8661419637333276 Ga
atom 15.9683140387492930 9.1067350156284856 2.5435875693201977 Ga
atom 1.6371139101292511 6.4987291849886697 12.9036704420788890 Ga
atom 1.5437208294036768 6.4887431258513937 7.8497715513151638 Ga
atom 1.5710811100897455 6.4064791903312575 2.6093224855446353 Ga
atom 3.1699132724087531 3.6439136895877011 12.8437496128877235 Ga
atom 11.1184241645489976 12.0044417856437899 2.8100936918572383 Ga
atom 12.6617230095199300 9.3547135087412432 13.0767165700461216 Ga
atom 12.7675727855696177 9.2514063861671136 7.8093522410492495 Ga
atom 12.7832090725659260 9.1874601112719603 2.5630483070950860 Ga
atom 14.3330966724650395 6.5087802655088280 13.0057908714583963 Ga
atom 14.4690709193181846 6.5294162356897276 8.0452557617801190 Ga
atom 14.5074976022112452 6.3731956405087420 2.4025026167051764 Ga
atom 6.5144906545295660 14.7881533781054237 13.0412436408484425 Ga
atom 6.4215876686474678 14.7428280286201421 7.7608470268992731 Ga
atom 6.4905440515157240 14.7775537742162335 2.6034736474051012 Ga
atom 7.8590735261627156 12.0775720097810790 12.8615927764200073 Ga
atom 8.0285726249074933 12.0916147699163066 7.8248859702161662 Ga
atom 12.9191587494033300 14.7500969996444837 13.1097802491270272 Ga
atom 12.9687120401053750 14.7706398919192381 7.8672197844997571 Ga
atom 12.7910798239844770 14.7048667512619886 2.7427964407502023 Ga
atom 14.4532379002037796 12.0485643451803206 13.0112222655240704 Ga
atom 14.4942542432612544 12.0056407330529229 7.7737290992943722 Ga
atom 14.3061240559165626 11.9363436641835552 2.6696493046308802 Ga
atom 9.5600427251739521 14.8193095642561516 13.0974459905863281 Ga
atom 9.7563479774852855 14.9792498625387047 7.8702181572648238 Ga
atom 9.6911066596236370 14.8469569781075208 2.6892820253202183 Ga
atom 11.2013121477109774 11.9162968728684362 13.0131513546164772 Ga
atom 11.1899925014088542 12.0167206205612249 7.8591382635731648 Ga
atom 14.4392154438468836 0.9283397003522631 7.7068899560913584 Ga
atom 14.3409708997565026 0.7794646394139991 2.7087208012325683 Ga
atom 3.1107007295828693 14.7222459372868677 13.1087704915312973 Ga
atom 3.1622433481678911 14.8610112809544113 7.7226522629442238 Ga
atom 3.2477724696298007 14.7115274670571239 2.6120906356127418 Ga
atom 4.7170769559642158 11.9722020542614427 13.0472060727519157 Ga
atom 4.8386884736201345 12.1584392671905732 7.9407303469023480 Ga
atom 4.8260200858978655 12.0094841605702367 2.6493495538158842 Ga
atom 6.2868900476977698 9.2269513153559970 13.0302310843334936 Ga
atom 6.4902196991079597 9.4475690598571873 7.8264421503382913 Ga
atom 6.3681278577979503 9.2638030076856595 2.5853163769989354 Ga
atom 8.0618812887517546 12.0117462341265551 2.7921539277451606 Ga
atom 9.4851867329244293 9.2318425523875192 12.9474098939430906 Ga
atom 9.5713049148510247 9.2576197569562932 7.7898457153204079 Ga
atom 9.5332885014801185 9.3662290470396652 2.5046008189226914 Ga
atom 11.2308844333247553 6.5680534810820683 12.9845295616931473 Ga
atom 11.1196440711755464 6.4147029169921739 7.7913694619948552 Ga
atom 11.1425562055238743 6.5924244293059218 2.5547711326536313 Ga
atom 12.9101517659523122 3.7270427429523267 13.0503856857572771 Ga
atom 12.9111348692016374 3.8008329720174499 7.7395262508305960 Ga
atom 12.7712411177961833 3.5951562056211621 2.5527461052577691 Ga
atom 14.3876884649699104 1.0259607499398338 12.9954438721426602 Ga
atom 6.2699280953615846 7.4690112085795839 5.2372369470702758 Ga
atom 8.0834049500968614 4.5829512862597968 15.4729893767534570 Ga
atom 7.9984152210992567 4.6939497890986859 10.4597610249493762 Ga
atom 7.8374891350433469 4.6307026093995587 5.2608640961735187 Ga
atom 9.7967242569092736 1.8552045561175863 15.5294707119349837 Ga
atom 9.7264580226029178 1.9003242373023157 10.4453935153132349 Ga
atom 9.5590035974037768 1.8506901244287479 5.2937803815896070 Ga
atom 0.1277575892709545 12.9824467141424851 0.1301106160954708 Ga
atom 15.9930362736497340 12.9536049126902189 10.4303174870312905 Ga
atom 15.9176431240509046 12.7983610372845167 5.2331227610112530 Ga
atom 1.6469491993894005 10.1431728715017329 0.1623818763624681 Ga
atom 1.6312811361078434 10.1820859840013842 10.3647060025700100 Ga
atom 1.6282063184363598 15.8074947908370227 0.0732473881722743 Ga
atom 1.6605627809494379 15.8768255841226136 10.6152777532846265 Ga
atom 1.4290983151329077 15.7146352804420815 5.2280539615437576 Ga
atom 3.1576897011367944 12.9572745778840179 0.0165075593320641 Ga
atom 3.1669602578775908 13.0027952352303462 10.4974758056784392 Ga
atom 3.1569831180627732 12.9423142446929198 5.2230439720225377 Ga
atom 4.8138773035311750 10.0195073111887734 15.5586946643707744 Ga
atom 4.7797827201771339 10.3205651556295361 10.4090303590480069 Ga
atom 4.7610179950510396 10.1913544338845803 5.3115205892741715 Ga
atom 6.2777507065206830 7.2990599746404072 0.0732744642816786 Ga
atom 6.4305225851706327 7.5201863134802478 10.4624497781320880 Ga
atom 0.0502887439447520 7.4372384650293757 10.5575175222915725 Ga
atom 15.8642400732723026 7.5037792327162869 5.1268777994012975 Ga
atom 1.5403307286456074 4.5749244928108395 15.4439955142058309 Ga
atom 1.6269320355173047 4.6309044803767154 10.3717212773082217 Ga
atom 1.4763532844233593 4.5498553185321171 5.1263079602066028 Ga
atom 3.1111282922128360 1.9205896468167363 15.5445650269648485 Ga
atom 3.2253417798179602 1.8534200229410338 10.3759795792974323 Ga
atom 3.0392376102259790 1.7855736243997500 5.0330018431728947 Ga
atom 15.8999913381803424 1.7995957015104589 0.1376283866766577 Ga
atom 0.0285115178159432 1.9570328101711887 10.4404516976513619 Ga
atom 0.0264689113841200 1.8098904942487311 5.1068408712842652 Ga
atom 1.6046163455232219 10.1367672965529483 5.1642564875814632 Ga
atom 3.1843411481570518 7.2691585248835642 15.5873166017110716 Ga
atom 3.2539913176146253 7.4169404168154340 10.4141659382821903 Ga
atom 2.9951945376148279 7.3084489435658897 5.2196855825646233 Ga
atom 4.7282612218395466 4.5077168677926434 15.4627019344332748 Ga
atom 4.9938547227640795 4.5461075108063405 10.2132485816088536 Ga
atom 4.6783153432893663 4.6000643331897653 5.1816016881542675 Ga
atom 6.4837742328126495 1.8222856016445201 15.5876125695415695 Ga
atom 6.4200660419968045 1.6608957495320313 10.5088347986787856 Ga
atom 6.4586833963766033 1.7353934325076019 5.0507491736477146 Ga
atom 15.9047439573642766 7.4032150443553943 15.4400354927687253 Ga
atom 14.3838624936489552 10.1855742252312886 5.0937283362837302 Ga
atom 8.1426269696972309 15.7626366532392783 0.1465237752937327 Ga
atom 7.9796170017929606 15.8166964683368061 10.3249915351822974 Ga
atom 8.0337796714275846 15.6987346796041969 5.2292478475308890 Ga
atom 9.5968819055341719 12.8775117642713131 0.0155755024609603 Ga
atom 9.6385207482474957 13.0720949800057209 10.4491895112762982 Ga
atom 9.5996438511187883 12.8799075775683356 5.2982541285762670 Ga
atom 11.3372327953507188 10.1654925239291067 0.0930990815102850 Ga
atom 11.2926518118050030 10.1723370425377766 10.2922597541993088 Ga
atom 11.1654105712816722 10.0291719430472774 5.1848646021129312 Ga
atom 12.8415589313401401 7.3224702642162738 0.0679774131957380 Ga
atom 12.7411372032450441 7.4808016429049289 10.4251946404810276 Ga
atom 14.2843041278598175 15.7236046923801069 0.0892574385347813 Ga
atom 14.4459456432094271 15.8579101604541073 10.4147714857511389 Ga
atom 14.5255454711785781 15.7609073323818656 5.3268763014574905 Ga
atom 11.3343183006016854 15.7059151886899393 15.5580438571683288 Ga
atom 11.4243267547367218 15.6778313644079059 10.4044300681852757 Ga
atom 11.2435187376125967 15.6605338823592533 5.3829350888036887 Ga
atom 12.8208223531855285 12.8100492757008162 0.1555633758066645 Ga
atom 12.9045698202903782 12.8411643787328984 10.3737550496187065 Ga
atom 12.8021453473461815 12.9386961724315910 5.2639229823740239 Ga
atom 14.3622590631302174 10.2627901104105632 0.0825066587007024 Ga
atom 14.4043941548147121 10.2332860437247781 10.3231161322656497 Ga
atom 8.1237682295410814 10.3260433889300529 10.4559235598914171 Ga
atom 7.9629721605551964 10.1890365730206387 5.2977916648960370 Ga
atom 9.4715513928432102 7.4881251322490998 0.0011537598214200 Ga
atom 9.6597389267037546 7.4293871874464434 10.3925047158442396 Ga
atom 9.5667256945939965 7.4168126072615967 5.1529494659742472 Ga
atom 11.3184126534810279 4.7150478107519485 0.0123725344188626 Ga
atom 11.1517867847878200 4.7319739645794661 10.3467731213879706 Ga
atom 11.1214181172306450 4.6737800140187229 5.0488835671856993 Ga
atom 12.9245156980637663 1.7956268456359290 0.0806152484800292 Ga
atom 12.8642236790106068 1.9217438815950658 10.4313750806978103 Ga
atom 12.7226544451397725 1.8266405717746437 5.1953904255433425 Ga
atom 12.7658322210317010 7.2559067012645482 5.2437314726414890 Ga
atom 14.3442537570294633 4.6521420991660625 0.0692932267165970 Ga
atom 14.5327917304019696 4.7484241655530832 10.3415190815902225 Ga
atom 14.4515090412308886 4.6748944893350641 5.1862604640099521 Ga
atom 4.8375872193175997 15.7936533442623688 0.0432434173783520 Ga
atom 4.6860045299849880 15.5970171701137339 10.3908354319472291 Ga
atom 7.9980850922333806 10.1585143627702639 15.6004641800280766 Ga
atom 6.3365307928413319 12.9911303039461288 5.1908354039850790 Ga
atom 6.4971165979306713 13.0070478140271479 10.4591014164867868 Ga
atom 6.3371741991788797 12.9634479264351299 15.5404503650470769 Ga
atom 4.8029039066293828 15.8038260482191912 4.9804773492278649 Ga
atom 3.2995493579840565 9.1516522404606953 9.8210307741034750 N
atom 3.2037764183563042 9.1563112990394249 15.0231738193281803 N
atom 1.6762489678736641 11.9017938926585032 4.6407593828331430 N
atom 1.5640835830213695 11.9476540681892676 9.7521552287974131 N
atom 1.6808065216719827 11.8891386934030265 15.0481633070810883 N
atom 15.9977121676378431 14.6546764074020963 4.5427381414426842 N
atom 3.2719499160200960 9.1998529573388161 4.6414920356758582 N
atom 4.6670306093355061 6.3865704811043829 14.9783335108548723 N
atom 4.7579117405497371 6.5817532078603591 9.7974735841842939 N
atom 4.5283869815525692 6.3185650246551734 4.5380546179309675 N
atom 6.4101599015523947 3.8266734890836052 14.8580091587259346 N
atom 6.4718589659151897 3.5199381078924739 9.7332813541124281 N
atom 7.8771130311482214 6.4479123826761100 15.0311672926279591 N
atom 8.0049124464292678 6.5848534030068615 9.7538377790978679 N
atom 7.8703407718749636 6.4201889119124891 4.6141554266079536 N
atom 9.7040458719018616 3.7716541182914374 14.9842427492135641 N
atom 9.6122843011828252 3.7251551417942568 9.6163883494458844 N
atom 9.4867909247541640 3.6955128063446336 4.5053742485848112 N
atom 11.3975975755648893 0.9543855032108028 14.9888686427021636 N
atom 11.3342952346136947 0.8694381512695979 9.7915605184497654 N
atom 11.2026848653600197 0.9141658562308531 4.5825165946151225 N
atom 0.0278806005620967 14.8395126952495158 15.0391166671169589 N
atom 0.0186549463791559 14.7944378492879469 9.9030353246093572 N
atom 3.2611398402151459 3.7683370344593006 9.7370295548453871 N
atom 2.9653625124358407 3.7548569705230346 4.6284514272456674 N
atom 4.6615697993622449 1.0342230950936699 15.0961461240740924 N
atom 4.8007766888417018 0.8762753003254312 9.6927507218255862 N
atom 4.7143101183442120 0.9322274456009373 4.3715976193560069 N
atom 15.8994215257680640 3.5968187394926758 15.0322659287831222 N
atom 15.9543009920394763 3.7405410324451269 9.6792865913618353 N
atom 16.0040251904456987 3.6231891734090125 4.5052414040510378 N
atom 1.4480540730827971 1.0158390761184464 14.9293574973872882 N
atom 1.6178360526573132 0.9236950180321953 9.7293515766439072 N
atom 1.4778384107942759 0.8919098903861239 4.4906675549988675 N
atom 6.3948963348750301 3.6360452225707176 4.5674980762367428 N
atom 8.1503230784825487 1.0104430172385370 14.8831581462050586 N
atom 8.0993852189161313 1.0032682245247206 9.8386207001749924 N
atom 8.0860467950110291 0.9759785804234427 4.5261765434457510 N
atom 0.0265714125724825 9.2395542893991482 15.1603868005440034 N
atom 15.9504903593000833 9.2368265173910604 9.7700020400778236 N
atom 15.8769550967056290 9.2745300885892661 4.5335728226448202 N
atom 1.5101861120269386 6.4069418395599440 14.8854291205967399 N
atom 1.6182895291050383 6.5984042481975935 9.8253656010952160 N
atom 1.6050671064052962 6.3985991449758002 4.5712258021264320 N
atom 3.1867045965966998 3.6382839182882289 14.7575532079160752 N
atom 11.2590601161847168 12.0073811646580424 4.6648215773885546 N
atom 12.9858315674895266 9.2516235366084096 15.0179053748547755 N
atom 12.8583889896450714 9.2560731527860796 9.7339574555353803 N
atom 12.8950251030498215 9.2864672575032436 4.4995817588498239 N
atom 14.4230703433598624 6.2878311233101600 14.8733207951639450 N
atom 14.4109744230927568 6.5857192929302579 9.9256001245504777 N
atom 14.4502202576121572 6.4782981492927121 4.3424023362210216 N
atom 6.5504543924972829 14.9144699724707195 14.9237856753135159 N
atom 6.4889883157184371 14.8439207190431492 9.7298775675553841 N
atom 6.4536665045492265 14.8016441596397854 4.4821357304239546 N
atom 8.0374387986822402 12.0606093908734131 14.8646822106260164 N
atom 8.0978153075593422 12.1036679569614520 9.8857209638139825 N
atom 12.9323584955911439 14.7343451534545800 15.0631498221706526 N
atom 12.9665437390814162 14.7818631999686794 9.7978960410204472 N
atom 12.8677654660924485 14.7636557251364042 4.7626566397256802 N
atom 14.5148159002406132 12.1528051372646111 14.9633823718268797 N
atom 14.5191856701185138 11.9422485128037614 9.8120450989902501 N
atom 14.3349742967173395 11.9652408746144516 4.5739261758230683 N
atom 9.7519874012002852 14.7923319370212525 15.0342521300030398 N
atom 9.7433330104782403 14.8805653142325944 9.7546575624139038 N
atom 9.7205530928951891 14.8215626091214272 4.7834301311574619 N
atom 11.3046873358213809 12.0603207583407190 14.9461502374797508 N
atom 11.3196441479534862 12.0992341290514354 9.7309006105393792 N
atom 14.3579259639669452 0.9742661306157462 9.6620944233963648 N
atom 14.3554933887268739 0.8498553434584676 4.6571516462858558 N
atom 3.1578125360934854 14.8019191365022529 15.1245588775724116 N
atom 3.2377399920483381 14.7356761731008721 9.7866604828081343 N
atom 3.0347030381504094 14.8464910290025713 4.4820249614334742 N
atom 4.8386413780259439 11.9780248424870717 14.9520921629164931 N
atom 4.8139252922553331 12.1437207368521420 9.9073389325070469 N
atom 4.7661447510995192 11.9699147136232380 4.6650174990214364 N
atom 6.2877185511017721 9.1472302540888428 14.9699945796275120 N
atom 6.4599032835467369 9.4411742431593666 9.7546093400640270 N
atom 6.2299019244775469 9.2321730113292428 4.5856359631223782 N
atom 7.9576671319182326 11.9380265689992893 4.6387812644139315 N
atom 9.7901455914664997 9.3030329289211142 14.9690120302145342 N
atom 9.6209002929779146 9.3053706046139659 9.7230903399101472 N
atom 9.4631964839968479 9.2801550185325752 4.5635792918891909 N
atom 11.1780555189079696 6.6814891563520300 14.9552376678983006 N
atom 11.1488282019310940 6.5813098246976773 9.7307404482363324 N
atom 11.1759767358037685 6.6459720398700544 4.4260662282520595 N
atom 12.8318685014613632 3.7321298797294413 14.9402716236774022 N
atom 12.8737747948157164 3.8034558920321997 9.7409989378621216 N
atom 12.7107472001613040 3.7680237939937187 4.5452799452638022 N
atom 14.4153468919975705 0.9719531012969389 14.9415047491627604 N
atom 6.2978559807735692 7.2795888889077807 1.9934189216310270 N
atom 8.1238652590008886 4.6202563610179386 12.3447386857916523 N
atom 7.9250117969375165 4.7429986532771586 7.1446787942277679 N
atom 7.9682359262714950 4.6181331753649868 1.8169420343306104 N
atom 9.6224140540920953 1.9985824074659964 12.2960792538648160 N
atom 9.5684570711234898 1.9096257908829122 7.0992459759696205 N
atom 9.7306475496124811 1.8241593631315214 1.7705444329253144 N
atom 0.0055104039189930 12.8358295702157559 12.4608670590473221 N
atom 0.0519537131545777 13.0222717290394492 7.1099816426330964 N
atom 15.9144568949002974 12.8120688856661893 2.0130135425341678 N
atom 1.6897514547259609 10.2166674841477505 12.3265740648524833 N
atom 1.7234150295353563 10.1625547255734805 7.1148007122515482 N
atom 1.5810979665068405 15.6391657558533499 12.4975430620726353 N
atom 1.6707575984764083 15.8310154897824837 7.2130478641300195 N
atom 1.6556206272136726 15.6041067382038694 2.1293387117979696 N
atom 3.0258003977463930 12.8975505467883362 12.5053062841704197 N
atom 3.1769304562935869 12.9115162382431112 7.2017873124012128 N
atom 3.1827429374826925 12.8226177404497594 1.9911279118847680 N
atom 4.6123535805246254 10.0993776787703400 12.3878718270316526 N
atom 4.8308055293502443 10.3902948480281569 7.1682838631034356 N
atom 4.8415586529859915 10.1471724224218978 2.0372752101051002 N
atom 6.3926985409906143 7.3732611567203152 12.4240101705985158 N
atom 6.3422793516304914 7.5252789296150828 6.9926868085717615 N
atom 15.8583462697178863 7.4469926745584418 7.1266795627955366 N
atom 0.1106338606078211 7.2324531068334545 1.7818603387637746 N
atom 1.5681836569481749 4.6295867041243026 12.3419823129980504 N
atom 1.4974755033182503 4.6079710044410511 7.1086878991264788 N
atom 1.6748330293973355 4.5058972671930189 1.8911290939387375 N
atom 3.1327654706131880 1.7044241456788389 12.3665796351192938 N
atom 3.1893950163916212 1.9396174793123100 7.1148667922574997 N
atom 3.1063835119478145 1.7378867237283648 1.9476542224484183 N
atom 15.8344157398627345 1.9884298189768115 12.3437588973534282 N
atom 15.9674368818081067 1.8330859656241090 6.9672822257908980 N
atom 15.8732597535609319 1.7749461616520665 1.9802700364822030 N
atom 1.5303034275100529 10.1402324859105573 2.0601432821824175 N
atom 3.2474151658179866 7.2814305250810936 12.3154729420602980 N
atom 3.2027519841152730 7.3127729442996232 7.2136939261799817 N
atom 3.1575438959971027 7.2320830499311226 1.9123083161475583 N
atom 4.8459076008753801 4.5127722478633823 12.2571515237053461 N
atom 4.8051773894352445 4.6326343537785588 7.0819954805184677 N
atom 4.8638810791494560 4.4552879731009076 1.8830720266022454 N
atom 6.4854274543741433 1.7218533691251510 12.3421228718042961 N
atom 6.3665559025749534 1.7515179273952448 6.9856895215646606 N
atom 6.5141483139212522 1.7708974868374321 1.8737838361322181 N
atom 0.0113881069549223 7.5500169700083006 12.4432315091180108 N
atom 14.4142299902758886 10.1975883725119072 2.0103860418444865 N
atom 8.1228999859884468 15.6653461058122385 12.2512731313209606 N
atom 8.1444239403051473 15.6800012238337612 7.2010508915886735 N
atom 8.0952102156524433 15.6464439614244757 2.1849198452736434 N
atom 9.6239497058735797 12.8417075570255470 12.3698692712450082 N
atom 9.6514471682611163 12.9248408839332249 7.1598001722820381 N
atom 9.6076518540578277 12.9461395245123416 2.0229563268999979 N
atom 11.1295519704752692 10.1745214721997108 12.2464076277346781 N
atom 11.2002127715403308 10.2296279758958661 7.2111641943803972 N
atom 11.2022780177843249 10.1024148116683286 1.9658227900511640 N
atom 12.7201936449829169 7.5981162196223400 12.3174187075573229 N
atom 12.7968547480991734 7.1832234001804380 7.2002859865744577 N
atom 14.5019286044650855 15.7231657752712461 12.3417464944563626 N
atom 14.5251206911793886 15.6963754747141628 7.2324049688679288 N
atom 14.4486273258783502 15.6270017256329705 2.0068009518606647 N
atom 11.2246920454003423 15.7931191000761029 12.4858212653874290 N
atom 11.3680636340231942 15.9347538618551567 7.2792035599092433 N
atom 11.4022009620402507 15.6993796902347906 1.9593966645551120 N
atom 12.8368622989729850 12.9635765986999711 12.3891411111456478 N
atom 12.9044502675492438 12.9278457023681721 7.3138706163927818 N
atom 12.8079581090668810 12.8416334440505242 2.0626536295373592 N
atom 14.2602601588064655 10.2284425534646441 12.3536792966703199 N
atom 14.4632842950606033 10.0537818702365875 7.2023115882042701 N
atom 7.9942474651386073 10.2930306086466956 7.2264222972451142 N
atom 8.0218663880764165 10.1753520023990252 1.9009567280674071 N
atom 9.4763327213266564 7.3564187086461859 12.3153491312911623 N
atom 9.6826307337731219 7.4177373305191772 7.0880290645690227 N
atom 9.6030297282196155 7.3324493677302289 1.9591640933493488 N
atom 11.3260655050847987 4.7552749028300063 12.3484401845449625 N
atom 11.1918646003028144 4.5737239663370133 7.0590193001788872 N
atom 11.1458773272506040 4.5649574852972004 1.8432524968246145 N
atom 12.7796963732211815 1.8912424002685906 12.3087973851980355 N
atom 12.8817252499661965 1.8089543854126808 7.1418366586928403 N
atom 12.8782367663210398 1.8469082899131568 1.9763377197881402 N
atom 12.8287176578154742 7.4165714915115526 1.8419371588298417 N
atom 14.4203069108866160 4.7254193085722811 12.2323579655140655 N
atom 14.5016874901729338 4.7349276755911909 7.2175104122668783 N
atom 14.3921104012746603 4.6357780993546651 1.9584257828786913 N
atom 4.7737679472119066 15.5505985867546634 12.4587339141337097 N
atom 4.7687207270453023 15.6162586478110885 7.1563558425252465 N
atom 4.8499528379851817 15.6603635458190134 1.9576232118561214 N
atom 6.2536743354913007 12.9760413918682502 12.3091050389234109 N
atom 6.4618046605024873 13.0239504997744238 7.1800542257066722 N
atom 6.4483623056136343 12.7915918221284706 1.8666135880964001 N
atom 7.9881668695506702 10.2497982019131246 12.3546965833500586 N
