#===============================================================================
# Created using the Atomic Simulation Environment (ASE)

# Thu May 11 09:00:40 2023

#=======================================================
lattice_vector 16.5841519999999996 0.0000000000000000 0.0000000000000000 
lattice_vector 0.0000000000000000 17.2347563186669994 0.0000000000000000 
lattice_vector 0.0000000000000000 0.0000000000000000 16.1779175999999900 
atom 0.0301546624523724 15.2335481509525223 2.7830456197001925 Ga
atom 1.7740608492011707 12.5161223255350276 13.4412004394841578 Ga
atom 1.6680772208415671 12.3842115411523750 8.0567935652752887 Ga
atom 1.6949092952111993 12.5636408326899698 2.6028024889643819 Ga
atom 3.2806433336290959 9.6906298422538342 13.5229897836303969 Ga
atom 3.3016265514531589 9.6204967671503319 8.0514876301971814 Ga
atom 3.2422398815393563 9.5327566270221311 2.7166026508664336 Ga
atom 5.0105741029700770 6.6582421335760751 13.4960770079106620 Ga
atom 4.9715903154674930 6.6993635565925134 8.1288306793335856 Ga
atom 4.8938110695489740 6.6929211296447750 2.6437231381591446 Ga
atom 6.6820170839225570 3.8932263836471197 13.5355170538920522 Ga
atom 6.7676729292468423 3.8815996901493408 8.2310590111817650 Ga
atom 8.3177230081563476 6.9401056190350978 13.5404446474880249 Ga
atom 8.2446700582962187 6.6428010835504390 8.0781909490324342 Ga
atom 8.1822319875711695 6.5562661392933776 2.7309153754048738 Ga
atom 10.0131597029660657 3.9132663484262404 13.5164310712765410 Ga
atom 10.0494872855808808 3.8921243150890321 8.1476416464221479 Ga
atom 9.8843362489557567 3.8627217430292755 2.8371565096943980 Ga
atom 11.5072882653036874 1.0198710907149360 13.4894649032090825 Ga
atom 11.6438979790846400 0.8330140402089344 8.0241368200664951 Ga
atom 11.5439759077578614 0.8835284766502942 2.6264293499552092 Ga
atom 16.5565263148404718 15.2131543656944181 13.4814362450657388 Ga
atom 0.0268852723274922 15.2640044305259810 8.0222783680942200 Ga
atom 3.3824395017565614 3.7783300278821179 8.0094766892729385 Ga
atom 3.2868299678241888 3.8344952609468823 2.6524296505087759 Ga
atom 5.0079653058362377 1.0050316528464442 13.5354560368429055 Ga
atom 4.9600894249220202 0.9866546547981709 8.0947850728600947 Ga
atom 5.0129523739730502 1.0611746432979354 2.7457363995268294 Ga
atom 0.0243528215893222 3.7868950999480759 13.4111917755778229 Ga
atom 0.1229405087560587 3.8472881081317327 8.0941632859587287 Ga
atom 16.5398836696469580 3.7337132028952937 2.6736346528905148 Ga
atom 1.6926927873572151 0.8085879265290811 13.5313557735500236 Ga
atom 1.5976636590496800 0.9207439802287400 8.0842751033272560 Ga
atom 1.6788952207026333 0.8995259189138559 2.6361465633232761 Ga
atom 6.6654655858423819 3.8455061657016913 2.6800174827753778 Ga
atom 8.2935938189660803 0.9795729412596563 13.4732608254541191 Ga
atom 8.3892362758863577 1.1239379613793237 8.1048693552152482 Ga
atom 8.2462158075202652 1.0309493159101146 2.6468664984841754 Ga
atom 16.5766967104670790 9.5175479901619138 13.6269694240950159 Ga
atom 16.5733448953584599 9.5394943708672262 8.0477726482436012 Ga
atom 16.5686651242966683 9.4898073578593767 2.7164141200659508 Ga
atom 1.6784039128176516 6.6461097905908879 13.4660526304356729 Ga
atom 1.6321639478374943 6.6926281277578026 8.0155946896185721 Ga
atom 1.6557322454228294 6.6527985937029834 2.6233252244068619 Ga
atom 3.4309429803278717 3.8608398850390366 13.5436937197325058 Ga
atom 11.5836464212376367 12.3969281148793993 2.5585655286580646 Ga
atom 13.2862312853488653 9.5666632462074190 13.3898212973795019 Ga
atom 13.3206793162118391 9.5269222935977673 8.1612098120010135 Ga
atom 13.2012758278586890 9.5155080460163752 2.7009068648296073 Ga
atom 14.9242525527099357 6.7691138509750450 13.4378569191642949 Ga
atom 14.8506262186348508 6.7440052574162292 8.0551989216280191 Ga
atom 14.9035741685373608 6.6760202265367559 2.6547955075127603 Ga
atom 6.6670770452725998 15.4161390005747219 13.5181514835245107 Ga
atom 6.7271945553638091 15.4448186159539507 8.1619596414485311 Ga
atom 6.7061305956182391 15.2245026498256983 2.6865622758307710 Ga
atom 8.3846473532370958 12.5540537732053572 13.6148386837565880 Ga
atom 8.3484296333906318 12.6018863262930267 8.0786872962790230 Ga
atom 13.2203223501458975 15.2579812563919521 13.5029141658330705 Ga
atom 13.3277342590873253 15.3480803319600820 8.0354070557351829 Ga
atom 13.3457608537294643 15.2483585362245169 2.6058120284426223 Ga
atom 14.9218068185715165 12.4091593364132873 13.4230694081711839 Ga
atom 14.9665886922388687 12.4593264146078671 8.0379860903736962 Ga
atom 14.9922131416090867 12.3481384896034108 2.7381640512465144 Ga
atom 9.8786130475084253 15.3641365795339730 13.5067029115228756 Ga
atom 9.9558345033387070 15.4381802525596843 7.9633825564018261 Ga
atom 9.8976248097792219 15.3208809406731419 2.5937238754304173 Ga
atom 11.6353491505787794 12.3821581581523397 13.4248428952024437 Ga
atom 11.5524857545416282 12.4842732447100175 8.0819389497189924 Ga
atom 14.8649340101814307 0.9256289346041470 8.1001790031712719 Ga
atom 14.8923846591924551 0.7832599442313561 2.6463806396394443 Ga
atom 3.3035946892587558 15.3901758797640866 13.5004820858383301 Ga
atom 3.3811101578926284 15.3688876760184439 8.0481111450344400 Ga
atom 3.3409315825206551 15.2648695083275605 2.6328586556999536 Ga
atom 5.1192532115743941 12.5614860113483626 13.5195194997277817 Ga
atom 4.9719781972200590 12.4179694074187061 8.0714752739454525 Ga
atom 4.9399526766832222 12.4558968730902748 2.6077395901783840 Ga
atom 6.4353513746958981 9.6409310382927131 13.5187462216127248 Ga
atom 6.6420364233807403 9.7234648486972652 8.1309968307391909 Ga
atom 6.5665215250519697 9.4570920527583553 2.7427624955574732 Ga
atom 8.1463962662573071 12.3442090084199236 2.7440192691139131 Ga
atom 9.8687343084800503 9.5704708676046675 13.5176893503805697 Ga
atom 9.8249131374787666 9.6328668691400789 8.2260385714159394 Ga
atom 9.9091969664474959 9.5760901533088472 2.8233162221704418 Ga
atom 11.7095756619315825 6.6616546287659713 13.5231485249382235 Ga
atom 11.4755487977438300 6.6911676959969322 8.0080953452593313 Ga
atom 11.4382751438441517 6.7083776555629724 2.6860268276153798 Ga
atom 13.3292472984507135 3.8967282546651933 13.4656521593749954 Ga
atom 13.2304990832975875 3.7149085854046562 8.1696267265530391 Ga
atom 13.2781752688657964 3.7984519238495595 2.6828072473877285 Ga
atom 14.8378014647634568 0.7598085389915084 13.5784353502942299 Ga
atom 6.6592053511875129 7.6130103057460072 5.5363664421161571 Ga
atom 8.3673925087571970 4.7687536709452445 0.0009107645515043 Ga
atom 8.3403528176588324 4.8644821485984666 10.8775428853336287 Ga
atom 8.3103633436370803 4.7789038137017172 5.4055820231112133 Ga
atom 9.9718361194979543 1.9846421070860873 0.0075748562500195 Ga
atom 9.9798357292242521 1.9027329977508740 10.7390749005256847 Ga
atom 9.9261382273867653 1.9466114258152210 5.3580608358574633 Ga
atom 16.5172104243972733 13.3535743723272819 0.0414858833425362 Ga
atom 0.0583478835656238 13.3959844102576344 10.7355837424512561 Ga
atom 16.4928018274761818 13.3547205497363795 5.4400554139856050 Ga
atom 1.5909068814854284 10.4698003074906723 16.1037023800966779 Ga
atom 1.6432386073534013 10.5296611820334185 10.7632129550858480 Ga
atom 1.5554003472223934 16.3270734026142783 16.1663368651446397 Ga
atom 1.5292501338815667 16.2406291126847790 10.8061079752948839 Ga
atom 1.5780897565501613 16.3287553779521986 5.3755512406295871 Ga
atom 3.2611304834343642 13.5472245880990787 16.0676980159603850 Ga
atom 3.3371597822558754 13.4783602504757685 10.6676222594065813 Ga
atom 3.2877406397573266 13.3733675644102892 5.4650919167062373 Ga
atom 4.8713017306585407 10.5594252309244485 16.1331029930117644 Ga
atom 4.9681023751876197 10.5235321174829739 10.7512498909592971 Ga
atom 4.9772789651733040 10.5787291744552334 5.4310409821121057 Ga
atom 6.5811464240341602 7.6510185117223264 0.0494437038447560 Ga
atom 6.5894520604396840 7.6848999660740187 10.7545189407547888 Ga
atom 0.0501874022599891 7.7030977641494260 10.8155540928998359 Ga
atom 0.0737612452286963 7.6956941285184630 5.3001162610931125 Ga
atom 1.5560525914665673 4.7518629467601405 16.0973104291093136 Ga
atom 1.5398070171573084 4.8578581851805618 10.8254184542436196 Ga
atom 1.6633176603776654 4.7525673316162607 5.3779468624307984 Ga
atom 3.3041222531412116 1.8976711506604480 0.0759108230181009 Ga
atom 3.2538373415661037 1.8825927188235185 10.7793566396846430 Ga
atom 3.3798707087682351 1.8367939508588738 5.4013030076625883 Ga
atom 16.5627895310797619 1.9210191333227788 0.0274878952303694 Ga
atom 16.5417894191694472 1.8311740167533443 10.7844153016629374 Ga
atom 16.5688290370399898 1.8348454313678058 5.3376168035690670 Ga
atom 1.7256929777037451 10.4538919809018100 5.3044170922877658 Ga
atom 3.3977563326086213 7.6045981606774005 16.1107278931542410 Ga
atom 3.2588261829293712 7.6991135313828369 10.8027170574674258 Ga
atom 3.3999156411782314 7.7453640641034998 5.3256399485004611 Ga
atom 5.0215278333617679 4.7213574987878912 16.0840355580959589 Ga
atom 4.9306273823438431 4.7670538826145883 10.6690309280254212 Ga
atom 5.0774643716026420 4.9169814426447731 5.3580587575984868 Ga
atom 6.6770756895314207 1.7826475760358400 0.0257996927973329 Ga
atom 6.5999817948809758 1.9741238899960496 10.8433731291872100 Ga
atom 6.6865455291463789 1.9125013148097241 5.3366238553438592 Ga
atom 0.0306632358625064 7.6647749069865876 0.0157381692994898 Ga
atom 14.9678035344225862 10.5522183061020947 5.3596775440012898 Ga
atom 8.3306211812840996 16.3477134724388335 16.0911877677385036 Ga
atom 8.2319186386842507 16.4458718037096396 10.7497967170399189 Ga
atom 8.2721941285716092 16.2875552989038574 5.3287114689152961 Ga
atom 9.8912530350872743 13.4494337564492401 0.0559051200349722 Ga
atom 9.9432693404534422 13.5154129597462713 10.7521417906086914 Ga
atom 9.9819482096795937 13.4142150852855995 5.2031540233834059 Ga
atom 11.7300709938610055 10.4128928122229212 16.1420346075019836 Ga
atom 11.6572056786936571 10.5707353602832335 10.8135422877589953 Ga
atom 11.6719234254175195 10.4884692148945469 5.4802050790301253 Ga
atom 13.2480934163431598 7.6759112854390494 16.1753812226885785 Ga
atom 13.3889995698165105 7.5743928709980866 10.7632411282223721 Ga
atom 15.0237198978475224 16.2055867261057109 0.0396486852431385 Ga
atom 14.8160205745551803 16.2479842883943526 10.9017631379871975 Ga
atom 14.9042292994064276 16.2638965581453476 5.4165126763535625 Ga
atom 11.6464940271990596 16.1498218167599568 0.0628314676756711 Ga
atom 11.5043394991992702 16.2786755641096086 10.8036402600756691 Ga
atom 11.6212867977154666 16.1927839260073014 5.2336376308863484 Ga
atom 13.0918862667420353 13.2702401054806263 16.1426755231333203 Ga
atom 13.2544854724657473 13.4937426157962754 10.8630396647032175 Ga
atom 13.3881266227093381 13.4326531303705110 5.3883192065486849 Ga
atom 14.8305858697250912 10.5695615226267243 16.0978750841659384 Ga
atom 14.9471601899551612 10.5587154666479499 10.7960609763236963 Ga
atom 8.3493508028745662 10.7889358788578953 10.7918680775057005 Ga
atom 8.2585610914171657 10.5040037423066916 5.4060413338983606 Ga
atom 10.0218452172616459 7.6259206100213826 16.1680137111004711 Ga
atom 9.9725166762900077 7.7329063123283230 10.7641642815384433 Ga
atom 9.9575008624709014 7.7132102753702654 5.5205206828077795 Ga
atom 11.7321921406352967 4.7277903094258242 0.0022517727983042 Ga
atom 11.6618361979099863 4.8224440266226596 10.8353291170451236 Ga
atom 11.6287619667679092 4.8271102697236481 5.4043523863431187 Ga
atom 13.2511468096147276 1.7976539246941816 16.1310079890078129 Ga
atom 13.1952536756229399 1.9351484273911346 10.9470062685952065 Ga
atom 13.3066034921353911 1.8301487519913520 5.4023769709727567 Ga
atom 13.3744538266853414 7.6656414290247241 5.3370626835269235 Ga
atom 14.9905894019249359 4.7397711610835112 0.0493377296835270 Ga
atom 14.9565964573250998 4.7048826860543116 10.7370459127766598 Ga
atom 14.9406625084780824 4.8985388469301361 5.4348106677918508 Ga
atom 5.0671188796859106 16.3472241630763619 16.1631486664519848 Ga
atom 5.0358037663631254 16.2127027781051538 10.7713757252812492 Ga
atom 8.3308237293679408 10.4877693401083949 0.1135270833811223 Ga
atom 6.6411637181063252 13.4032460131401354 5.4234630045098715 Ga
atom 6.6323258027865490 13.4531554545465717 10.8531868346155846 Ga
atom 6.7003255229800960 13.4829769513354236 0.0801632332726190 Ga
atom 4.9575718521125198 16.2443357946676912 5.3424055768736842 Ga
atom 3.3753603057704131 9.5704367023521772 10.1581513419618616 N
atom 3.3036235533514162 9.6023043925580218 15.4609616706568644 N
atom 1.6601309819660666 12.4469607600521570 4.8553454165150365 N
atom 1.6808676519015624 12.4538070471693967 10.1816656607686813 N
atom 1.6470199905034095 12.4353172828636893 15.5094954764261175 N
atom 0.0479737745518016 15.2604748014573897 4.6907481936548434 N
atom 3.3994067085807389 9.6263455847793775 4.7216091893161662 N
atom 5.0830223646122317 6.6351558762526341 15.5005006941741659 N
atom 4.9983333430364878 6.7288633056558762 10.1223636346689787 N
atom 5.0164666336129340 6.7744527808222781 4.6618784836651725 N
atom 6.7354497031333720 3.7934670954859113 15.5744504888977371 N
atom 6.6856973595082492 3.8583237270702089 10.1006756311789534 N
atom 8.2001012489322864 6.7853252116369056 15.6402576681133088 N
atom 8.2559329502489902 6.7213084028269749 10.1397873022826399 N
atom 8.2393916772758278 6.7434760843519364 4.7793494642248406 N
atom 10.0270884112968446 3.7840484812321815 15.4793271161353250 N
atom 9.9435993172346233 3.7736575178809324 10.2053774930036028 N
atom 9.8840393994726039 3.8191638306173279 4.7711834997481439 N
atom 11.5385378195435528 0.8642188907262219 15.5802600842915400 N
atom 11.5588669627470040 0.9930139336197169 10.0759788360035447 N
atom 11.6194126789278407 0.9006215566711101 4.6596723908854791 N
atom 16.5482645328301601 15.2331407985532934 15.5428276869904725 N
atom 16.4990792672550661 15.2640117745117578 10.0733392930780656 N
atom 3.2270545363844780 3.8072413967092502 10.0115056068505357 N
atom 3.3602465070372052 3.8224267158534735 4.7339912979138852 N
atom 4.9319149518581016 0.9567817986228305 15.5910515477592799 N
atom 4.9096800697337484 0.9416986636409896 10.1664958705366857 N
atom 4.9923288700474160 0.9718373399072018 4.8104318737477243 N
atom 16.4936565544636338 3.7605090962897214 15.4433254604390182 N
atom 0.0115257130899099 3.8111195856728513 10.1559178980813876 N
atom 0.0813149973498780 3.8467237299106003 4.7793651519309917 N
atom 1.5251501259835216 1.0005207595293610 15.5415866092011559 N
atom 1.5380249790540250 1.0070009867451348 10.1003922138667992 N
atom 1.7626470405363204 0.9251224970061468 4.6320768348160621 N
atom 6.6877454052427279 3.9462002578631186 4.7726158368201084 N
atom 8.2542971089417900 1.0367934258790892 15.5495203381901010 N
atom 8.2511565608327633 1.0914901598451778 10.1773138251293283 N
atom 8.2023802581349869 0.9066980646130665 4.6285302439448310 N
atom 16.4383883641171771 9.6106283443822829 15.5505527733017033 N
atom 0.0011357046236892 9.6436498097179104 10.1120619129294909 N
atom 0.0327096219326662 9.4563620020268697 4.7001913862591289 N
atom 1.7016128336281957 6.7798000063981707 15.5474670819949310 N
atom 1.6010853381879022 6.7593209817731887 10.2041675987394953 N
atom 1.6862296782123756 6.7069642791279040 4.6822035406094660 N
atom 3.2732069566738966 3.8096896573002770 15.5820662878349676 N
atom 11.7171906989602341 12.4355183660369093 4.6007863295906954 N
atom 13.2440772157990221 9.4975535105052700 15.4306947943670618 N
atom 13.2326491169564733 9.4432600939270923 10.1963983378726333 N
atom 13.1484029514818648 9.5213205729891666 4.7364851198166473 N
atom 14.9269588607977397 6.7040046435370897 15.5520412611420848 N
atom 15.0175609264760208 6.6649637853176484 10.0131474655379051 N
atom 14.9869530035557403 6.7875153837418134 4.7034345251559087 N
atom 6.7398342096763297 15.2954231397050417 15.5725995888901583 N
atom 6.6334944257403192 15.4537988343923356 10.2139992153259236 N
atom 6.6692821454710245 15.2413479265000777 4.6159603331832120 N
atom 8.2766949608395564 12.4704618059772336 15.5667751772564458 N
atom 8.3804603851051738 12.5898634633525877 10.1298857419956931 N
atom 13.2414466417161787 15.2415385015027702 15.5992669298264328 N
atom 13.0994795258496861 15.3195470268800111 10.0455242605426704 N
atom 13.2988262765215932 15.2607286549192249 4.6098538679830590 N
atom 14.7815860004160982 12.4794827942007984 15.5046297448079216 N
atom 14.9262268641750762 12.4788492448816761 10.0827046839433940 N
atom 14.8976877992235632 12.4075587379256742 4.7627397877222846 N
atom 9.8924125857326040 15.3463145659533993 15.5478422825037885 N
atom 9.8199008305452509 15.4408666672730934 10.0151363633481125 N
atom 9.9695971963575225 15.3217486737926070 4.5779653146141506 N
atom 11.4543079186166405 12.3587311634106189 15.4465403730449449 N
atom 11.4935737006071044 12.4805765157923307 10.2083594575616772 N
atom 14.7813916840590256 0.9762180806885866 10.1119521098796756 N
atom 14.9264674792907339 0.8885563385681667 4.6587044388967316 N
atom 3.3037858792330215 15.5027660969913423 15.5341900321496631 N
atom 3.3703619289268869 15.2801317520002744 10.2211648227793610 N
atom 3.2052675066057144 15.3846421288179265 4.6763959366409598 N
atom 4.9448497329549213 12.5206209847632675 15.5460886620855732 N
atom 4.9794709015168284 12.5132788245565632 9.9736026249903524 N
atom 4.9666193325131438 12.5103724259160707 4.6911171075325031 N
atom 6.6296388648093378 9.6509536141907244 15.4795950990558087 N
atom 6.7219584843519140 9.6875163738299701 10.1332204497398557 N
atom 6.4941548192468401 9.5145030797773185 4.7606094484538044 N
atom 8.2246975214637406 12.4376640493457806 4.8209713515562003 N
atom 9.9042631962442798 9.5985925667300691 15.5830956767574449 N
atom 10.0033254432851120 9.5959276318409898 10.1350584838863718 N
atom 9.9770421047326963 9.6256034618911333 4.8056575129394634 N
atom 11.5648469070002893 6.6028002178416942 15.5154385867964848 N
atom 11.6838598044393454 6.6622054919506777 10.1538009274781498 N
atom 11.5942551791982016 6.6615751184023733 4.7536285880777740 N
atom 13.3580219667820099 3.8735745115544056 15.4940454704664603 N
atom 13.2234787446403583 3.7847645891197415 10.1353394820449427 N
atom 13.2170429654831381 3.8153453812295210 4.7016931023650184 N
atom 14.9792855426572444 0.7949384113326537 15.6188141518795387 N
atom 6.6224037540747416 7.5682300098465918 2.1008975826135967 N
atom 8.3574681996737308 4.9233165699007584 12.8567117163994986 N
atom 8.3011032148010475 4.7957437073093638 7.4367587013707581 N
atom 8.3407395207944557 4.7925306711949007 2.0631198162199480 N
atom 10.0317012649733002 1.9656707946928105 12.7528202815082192 N
atom 9.9620045483602837 1.9811234983963646 7.4871397424362307 N
atom 10.0397676810432532 1.8915786162683610 2.0360348422437613 N
atom 0.0056439306220339 13.4031580915315782 12.8079296416496948 N
atom 0.1024793390152166 13.3101586635579530 7.4233741233584709 N
atom 16.4466917772972216 13.4334009382003465 2.0375129699498773 N
atom 1.5161653216360367 10.5688679642748369 12.8731511897190227 N
atom 1.7328226598508341 10.4359095859222624 7.3352001741348234 N
atom 1.7344332340616391 16.2649677072133123 12.8167843987412713 N
atom 1.6386767996881793 16.2741368106126352 7.3702195880087773 N
atom 1.6939380890451012 16.2157231429455884 1.9844311999351536 N
atom 3.4530176571355549 13.4897463992949831 12.8061668015046717 N
atom 3.3458356744544915 13.4825859384177562 7.3931323640124536 N
atom 3.3522951790350550 13.4131141414642627 2.0348694473158817 N
atom 4.9354462378804955 10.6749012385822333 12.8011789558236515 N
atom 4.8593228210838753 10.5136683052931694 7.4875181296657942 N
atom 5.0430806121694891 10.4654066730640700 1.9906711544860505 N
atom 6.5600525736679351 7.7394323818606905 12.7751643094845040 N
atom 6.7363428234174707 7.6879133940789410 7.4484350563746338 N
atom 0.0216416730776110 7.6288425616622204 7.2709003291576044 N
atom 0.0270178528253127 7.5148673099105325 2.0520088509996186 N
atom 1.7093568437559934 4.7771591781758538 12.7968197601788454 N
atom 1.8053788984059362 4.7200246139958866 7.3886374445987997 N
atom 1.5419931614258782 4.6882537132368896 1.9656723940177376 N
atom 3.3317730189877857 1.9882184797904305 12.8966383580551849 N
atom 3.3688719612017572 1.8977476532166144 7.4853245703278439 N
atom 3.3273935041438971 1.9859417467175460 1.9820665111034939 N
atom 16.4901767513279616 1.8690460837206608 12.7978378176816072 N
atom 16.4764021011660660 1.7868681400073920 7.4235707488725629 N
atom 16.5347349498262268 1.8342251450840179 2.1020108116026974 N
atom 1.4933182271277943 10.6497032945534276 2.0159578382134136 N
atom 3.2397438710187374 7.6589976114191680 12.8882509641377556 N
atom 3.4082952923760148 7.7609842987520379 7.3779702747902043 N
atom 3.2614075288036477 7.5642267010571098 1.9945181664833187 N
atom 4.9605106045011444 4.7562271659411541 12.7377003957116646 N
atom 5.0569995280419393 4.7746504256362590 7.4596917624249501 N
atom 5.0052787265964573 4.8581905519341513 1.9785814359747778 N
atom 6.6267375088582456 1.9690526435181483 12.8980518203218910 N
atom 6.6085133255910797 1.9859504526206524 7.4676349925557410 N
atom 6.7095482163895870 1.9677840652743499 1.9144956209833108 N
atom 0.0196375870641288 7.5481782764642329 12.9539401052440386 N
atom 14.8416921502529018 10.3875997604654966 2.0358450078413997 N
atom 8.2362703584696515 16.2807414866921256 12.7793947074094536 N
atom 8.2606374421827553 16.4390482652737866 7.3758154333786043 N
atom 8.1980857769256286 16.3648900967672191 1.9780676849811389 N
atom 9.8426656279896196 13.4417353775092945 12.8118314221669820 N
atom 9.9373369038032848 13.4264001943031062 7.3547596644867053 N
atom 9.8850339152827598 13.3563304545937651 2.0263571680549428 N
atom 11.6631101297246325 10.5653997754581574 12.8598090810076080 N
atom 11.6077553960609237 10.4665661692737952 7.5273632762359286 N
atom 11.6184288593336884 10.3948147943713387 2.0181190887431066 N
atom 13.3124094088778495 7.6151267235846660 12.8691215736287443 N
atom 13.1086581348096036 7.6418783566704267 7.3903646365931897 N
atom 14.9610092394170238 16.1562027524422831 12.9295197535910820 N
atom 15.0078625013640465 16.2236351978528575 7.4509712849970686 N
atom 15.0163262304080654 16.1635749059169349 2.1294775619511448 N
atom 11.6243503713752130 16.2629537631228231 12.8225422263782072 N
atom 11.6232691731324742 16.2869340644995866 7.2314060775262305 N
atom 11.6464774784935301 16.1845118843309841 2.0280179376398593 N
atom 13.1733374917044657 13.4043809552231341 12.8428879850417541 N
atom 13.2798940541736954 13.4310776861066028 7.4025437402725434 N
atom 13.3323283012417555 13.2828978927847157 1.9632135093410938 N
atom 14.9473687342972088 10.5129690407806056 12.8424752574004533 N
atom 14.8936977974139424 10.4373546101596446 7.4583652395560245 N
atom 8.2015781582355984 10.5993961757837987 7.3805877949507090 N
atom 8.2268796479118613 10.5259338332851140 2.0810116352947472 N
atom 10.0355945248450382 7.7920278997322390 12.8607151395009200 N
atom 9.8957944667009770 7.7005111113331965 7.5404548080417300 N
atom 9.8768437160543758 7.6814198855422733 2.0537455220950602 N
atom 11.6275907358340103 4.8506564847516067 12.8314757739619729 N
atom 11.5808163806914752 4.7498271768703404 7.4164451020933093 N
atom 11.6313246980201477 4.8962732475561941 1.9787990993983564 N
atom 13.2191321211741553 1.9471410455165001 12.9420798700737816 N
atom 13.2400802964057629 1.9599023243969367 7.5050029372154157 N
atom 13.1730510330829436 1.7361826086792245 1.9901814763431631 N
atom 13.2199566034522213 7.5265502913482631 1.9323186166809736 N
atom 14.9136716340988222 4.8340798561182670 12.8189122465174190 N
atom 15.0081306113804605 4.8425211634853538 7.4292863198684822 N
atom 15.0003002995255450 4.7280880724545584 2.0881769668428589 N
atom 4.9472227358973653 16.3698900174330753 12.8185270133614555 N
atom 5.0215018167409742 16.2586670889313538 7.3359043680297056 N
atom 4.9852330474112172 16.3642799953133853 2.0643364789834235 N
atom 6.6800529737548944 13.4320723581358408 12.9440822723879236 N
atom 6.6519631967939015 13.5951675732504800 7.5023367452462342 N
atom 6.6678988910021832 13.3963868736652643 2.1070851638584611 N
atom 8.2616420006538540 10.5950870727120137 12.8668780692974725 N
