#===============================================================================
# Created using the Atomic Simulation Environment (ASE)

# Thu May 11 09:00:37 2023

#=======================================================
lattice_vector 16.5841519999999996 0.0000000000000000 0.0000000000000000 
lattice_vector 0.0000000000000000 17.2347563186669994 0.0000000000000000 
lattice_vector 0.0000000000000000 0.0000000000000000 16.1779175999999900 
atom 16.5528128052631054 15.3270443584254021 2.6764064099787808 Ga
atom 1.7516197576017756 12.4057202347431019 13.4414431453674190 Ga
atom 1.5754421283435025 12.5005715162659019 8.0998556487948257 Ga
atom 1.7075391484159277 12.4741792915688663 2.7594464654465560 Ga
atom 3.3755773776124385 9.4993514757792443 13.4204109740216406 Ga
atom 3.2938388010125301 9.6823563952403173 8.0762731118031450 Ga
atom 3.3047629565811425 9.5991742515026903 2.8163546594707012 Ga
atom 5.0479398753747544 6.6863282414812710 13.4808961094200583 Ga
atom 4.9483456096046154 6.7916902997829345 8.1173377804982714 Ga
atom 4.9847480949540541 6.7496058897185600 2.6458144071057834 Ga
atom 6.6517034696823973 3.7748489044426932 13.4528149003087574 Ga
atom 6.7017647746900924 3.8915047714581323 8.1472109420187486 Ga
atom 8.3617575056246540 6.7188176700042952 13.4958626573411902 Ga
atom 8.3233846372480809 6.8029494288293142 8.2188414823544669 Ga
atom 8.3587570600207677 6.6608426913609557 2.6842110515636510 Ga
atom 9.9958188628399682 3.8699105614156246 13.4885822038052083 Ga
atom 9.9339756833031458 3.8518841490743965 8.1548620305314810 Ga
atom 9.8416671546530203 3.7944284893502158 2.7085327072696495 Ga
atom 11.6334524868597580 0.9140849934820536 13.4629363630419459 Ga
atom 11.5562908161917797 0.9377679293273339 8.1161914816170864 Ga
atom 11.5932054874400343 0.8839090522953578 2.6674935445231331 Ga
atom 0.0345633139109842 15.3265081627289117 13.5159635308904562 Ga
atom 16.5815962374117447 15.3525594853275038 8.0542650364953641 Ga
atom 3.3402767860836171 3.7112659414403839 8.1205651956851064 Ga
atom 3.3485680280410737 3.8912035547793296 2.6437532970515774 Ga
atom 4.8801260922288430 0.9427849172118234 13.3732943485538378 Ga
atom 4.9020358604765715 0.9479301054356517 8.0431437050009258 Ga
atom 4.9498536602275482 0.9347444125634700 2.6354209492230662 Ga
atom 0.0370110645353524 3.7340333549034690 13.4772882507005427 Ga
atom 16.5699911810501632 3.8346608691123061 8.0574735217966307 Ga
atom 0.0374255452573951 3.7695161445523930 2.6997060633268788 Ga
atom 1.6979215244768211 0.9426125256624364 13.4506727122939527 Ga
atom 1.6303277859527980 0.8655327688438578 8.0739161386207918 Ga
atom 1.6596476413291041 0.9082624181172197 2.6644478641653655 Ga
atom 6.5905435776534134 3.9108306849654086 2.7174788650629376 Ga
atom 8.3291148884240602 0.9412423244261262 13.4463095312893586 Ga
atom 8.2789931904812093 0.9797374057998987 8.0597652784781211 Ga
atom 8.2375044759929956 0.9462413579244578 2.7146184366982964 Ga
atom 0.0721866153697950 9.6330129661019122 13.4684648513176111 Ga
atom 0.0253098283223860 9.5796989996503896 8.0592422410441493 Ga
atom 0.0923396436732499 9.5827519426921537 2.7046030612646623 Ga
atom 1.7340174900016843 6.6382731919609883 13.4548496594604838 Ga
atom 1.6388388502030418 6.7281625522253030 8.0028821743456948 Ga
atom 1.6583930887637470 6.6934267171811612 2.6724819271477842 Ga
atom 3.2901599063601523 3.7986948102156708 13.4133909663891959 Ga
atom 11.6541236842358344 12.4412661352221381 2.6954134775596379 Ga
atom 13.3530175977482042 9.6109224638034281 13.4456412823658908 Ga
atom 13.3225737441830230 9.5782468322116276 8.0551113540494654 Ga
atom 13.2243494263724344 9.5425296283655534 2.6862366988033894 Ga
atom 14.9686125776533370 6.7176276860886963 13.4377676617059887 Ga
atom 14.9569685133537611 6.7233563323492298 8.1306877224878207 Ga
atom 14.9204090049423019 6.6110472075112323 2.6643655188839719 Ga
atom 6.6480344881798459 15.3274149602639014 13.4645762817637085 Ga
atom 6.5856616223552882 15.3065526678449491 8.0663503257602187 Ga
atom 6.6668616380960097 15.3200051594679572 2.7039325239394842 Ga
atom 8.3537475729635879 12.3662747451886066 13.5829056159713684 Ga
atom 8.3223196161603585 12.3881673440510944 8.0752253489440573 Ga
atom 13.2819090628274381 15.3154013516210021 13.4526433554314835 Ga
atom 13.2505770191747327 15.3012077212662110 8.1296160278068772 Ga
atom 13.2683797325411064 15.3461892604083712 2.7368253118950645 Ga
atom 14.9758377122825106 12.4860025011197511 13.4345905693940093 Ga
atom 14.9249926513742857 12.3813795647128320 8.1335181632254514 Ga
atom 14.8756489641594793 12.4587095349048216 2.6808777208380499 Ga
atom 9.9183552613714987 15.3371207774819833 13.4585785952827948 Ga
atom 9.8908144130866482 15.2995490427936751 8.1900173745710223 Ga
atom 9.9117690637599463 15.2730652326160374 2.7849924530425003 Ga
atom 11.6939872689050297 12.5101149819238344 13.5129555684658769 Ga
atom 11.5837240491476159 12.3893354936036051 8.1709856177966671 Ga
atom 14.8379890707467492 0.9487137868023781 8.0242898576417456 Ga
atom 14.8377306243143767 0.9760862448809450 2.6839972084368915 Ga
atom 3.3686188176795193 15.3437026452773058 13.4366767819844313 Ga
atom 3.3246782199372240 15.2839872538338373 8.1023715448913514 Ga
atom 3.3243722432917195 15.3377332811628602 2.6334960237618081 Ga
atom 5.0216877549454884 12.4877416413225344 13.4581057171282072 Ga
atom 4.9796097884362984 12.4880391227736123 8.1263250339409794 Ga
atom 4.9208279847328669 12.4975815565430786 2.7386316194180114 Ga
atom 6.6413405174473761 9.5549013796484061 13.4060992039054359 Ga
atom 6.6855392513129903 9.6154526778833223 8.0858958926824442 Ga
atom 6.6151651670625755 9.5733059353666157 2.6694441061398377 Ga
atom 8.3324124775162751 12.4267048186224081 2.7135562954391088 Ga
atom 9.8757574412136506 9.5796389333494609 13.5346522984299735 Ga
atom 10.0393958609944693 9.5051664323626923 8.1289903758785282 Ga
atom 9.9285562161891381 9.6571087956244241 2.6615477388210964 Ga
atom 11.6526825069843945 6.7973950479973819 13.5293823169744236 Ga
atom 11.6389073730392383 6.6656918154890441 8.1156016125357429 Ga
atom 11.5458602661074146 6.6177318888176044 2.7079462175245950 Ga
atom 13.3213398716411024 3.8111801938176302 13.3990992310163364 Ga
atom 13.3071154442968371 3.9285956755852105 8.1421536277904139 Ga
atom 13.2264004162846192 3.7712510602487486 2.6892083058768175 Ga
atom 14.9062537448045234 0.8709178547598739 13.5069439462977847 Ga
atom 6.7238022064233007 7.7025637927657611 5.4382081775572546 Ga
atom 8.2361089421602909 4.7616148918337107 16.1698105622217625 Ga
atom 8.3022534374668613 4.8559736334113532 10.8476669775880197 Ga
atom 8.2975663616086806 4.8239631502548681 5.4314729531395178 Ga
atom 9.9523963886111435 1.9043889285282640 16.1588437399401172 Ga
atom 9.8432945578539641 1.8941691774802543 10.7413947063218433 Ga
atom 9.9566760758568940 1.9755190134245419 5.3956778150841487 Ga
atom 0.0635815348630070 13.4296579352879863 0.0069298233224736 Ga
atom 16.5258568049386945 13.4002635669451795 10.8379065196771496 Ga
atom 0.0360731937988855 13.4431323099950149 5.3927759441517926 Ga
atom 1.6748763744454420 10.5254172147618643 16.1350708749196308 Ga
atom 1.6961788852467583 10.5252023878137386 10.8056598499956777 Ga
atom 1.6926390286545150 16.3356528846553388 0.0235373925697259 Ga
atom 1.6082445666081202 16.3042659968532710 10.7343975086291312 Ga
atom 1.6261887464382416 16.2710622597162597 5.3124645672187993 Ga
atom 3.2946685261576443 13.4101840513846646 0.0188930185768697 Ga
atom 3.3204783546597190 13.4232391107201270 10.8533643334062511 Ga
atom 3.3276218247949907 13.4313348949252465 5.4134020327773804 Ga
atom 4.9346060024637097 10.5296770700034870 16.1129413401497956 Ga
atom 5.0002231854420449 10.5614061047228827 10.8088861190517935 Ga
atom 4.9698268866909263 10.5354800900787406 5.4050733250401874 Ga
atom 6.6519568826070543 7.6039017304318870 16.1461363420027197 Ga
atom 6.5955171008635203 7.6467352312680870 10.8235678836957732 Ga
atom 16.5798085698800897 7.6626638743291942 10.7412872578569534 Ga
atom 0.0125925531746859 7.6993920351399607 5.3200675870822121 Ga
atom 1.6101393772567856 4.8033847296860452 16.1594574778963391 Ga
atom 1.6077061866772226 4.7799019224949264 10.7102519491569375 Ga
atom 1.6498667802732550 4.6506999113473428 5.4607687381612848 Ga
atom 3.3099943326917471 1.9604970643590731 16.1586099932539931 Ga
atom 3.3668808587225296 1.8706857829653505 10.7399031220396814 Ga
atom 3.3338012534578043 1.9054721588281252 5.3801171187265728 Ga
atom 16.5508082509692294 1.9099117231295686 0.0934003331876204 Ga
atom 16.4863073765924106 1.8802191234641903 10.6651464557671289 Ga
atom 16.5424728279875382 1.8666107197493962 5.2921654859256559 Ga
atom 1.6165528382551317 10.5807784209088318 5.3999525132708719 Ga
atom 3.3015842222183238 7.6375250540493855 0.0063657326742435 Ga
atom 3.2706306947681019 7.7363699927345699 10.7980268933684638 Ga
atom 3.2640096806490408 7.6530912561085245 5.3905136014039261 Ga
atom 4.9949647958332895 4.8385033819569552 16.1079431190450819 Ga
atom 4.9760039416383588 4.8102091869879331 10.8274733616714371 Ga
atom 4.9084197719917597 4.8439073796419141 5.4495908701531324 Ga
atom 6.6364963836973061 1.9048147875252381 0.0152208208467428 Ga
atom 6.6500038600315969 1.9313855203608272 10.7522226840601398 Ga
atom 6.6821820219314878 1.8597214799785682 5.3699106523526883 Ga
atom 0.0493210235043966 7.6200799117168865 16.1058064764156583 Ga
atom 14.9454242835903042 10.5114258392369457 5.3593856674961025 Ga
atom 8.2918001976157285 16.2550332269018298 0.0252275672509176 Ga
atom 8.3626302436443112 16.2907839731056256 10.7716167200921706 Ga
atom 8.2305588315999714 16.2966060899223599 5.4593390737722274 Ga
atom 9.9965141712511461 13.3685208639697883 0.0916792563163363 Ga
atom 9.8931337405577739 13.3691756776222572 10.8333791325817774 Ga
atom 9.9211682722995818 13.4621977444903216 5.3920619656727711 Ga
atom 11.6794905450065212 10.4678027035673420 0.0105516957863258 Ga
atom 11.5749236661519337 10.4149761316853180 10.7653106787588779 Ga
atom 11.5647124431066626 10.4802620725127937 5.3405393790670210 Ga
atom 13.3478074487317464 7.6367464133773391 16.1608798767882611 Ga
atom 13.3112412128976647 7.7779579274067947 10.7668315371185095 Ga
atom 14.9001007927372271 16.2995830938297210 16.1733819622226171 Ga
atom 14.9527669359410087 16.3193412306429408 10.7453143614480329 Ga
atom 14.8382392173463824 16.1907902306276839 5.3376670577898553 Ga
atom 11.5861527458757294 16.3037585391982915 16.1712194580101141 Ga
atom 11.6292650224429401 16.2532190333711419 10.7920513154639206 Ga
atom 11.5980724261697947 16.2884935107253774 5.4244649418890294 Ga
atom 13.1866412835414888 13.4181916043035052 0.0237748722192544 Ga
atom 13.1866000860362185 13.4606383112583323 10.8374794429253818 Ga
atom 13.2812409081402176 13.3434294233377031 5.3800142979663370 Ga
atom 14.9632977989306930 10.6114450217401437 0.0380350371372179 Ga
atom 14.9749123455523634 10.6594619637215047 10.8413943162703728 Ga
atom 8.2995317911083237 10.5131516319907998 10.7786660814650617 Ga
atom 8.3342433487029091 10.4569730149825073 5.3858234939210448 Ga
atom 9.9427650122976559 7.7128348016549708 0.0285540371910264 Ga
atom 10.0306895518733175 7.6468074967097381 10.8693736999312520 Ga
atom 9.9726849906287978 7.6473209130478361 5.3973740921216438 Ga
atom 11.5533078525960988 4.8445399097892379 16.1402454139870244 Ga
atom 11.5805352666723138 4.7269916930748819 10.9287425674779399 Ga
atom 11.5887719319509213 4.8277990436291081 5.3246774924509079 Ga
atom 13.2123219882555034 1.8969141532840503 16.1766390295312057 Ga
atom 13.2076346092509684 1.9604770409052605 10.7619054574669484 Ga
atom 13.1656565057411097 1.8547854513069462 5.4333910322943577 Ga
atom 13.3433422966523842 7.7230180047180266 5.3687749525788515 Ga
atom 14.8986153160664649 4.7977505884119589 0.0021423057009043 Ga
atom 14.9637969545350753 4.8160863844561437 10.7178792341390210 Ga
atom 14.9155141296759819 4.8277292277261452 5.3764306770589458 Ga
atom 4.9703432564762595 16.2647965241109240 16.0695819687726029 Ga
atom 4.9889037235903837 16.2823241548081477 10.7772329672876346 Ga
atom 8.2638750595106067 10.5304156264151931 0.0118814303913878 Ga
atom 6.6177181035585875 13.3433056644984767 5.3750048372847559 Ga
atom 6.6811530065666531 13.3972968911820107 10.8643369543486070 Ga
atom 6.6528226122853056 13.3845961667397511 0.0604059464311742 Ga
atom 4.9409215033407623 16.2494282172786910 5.3862656685128361 Ga
atom 3.3216621750456325 9.5928279797176117 10.0983335776863665 N
atom 3.2581117992973732 9.6268333976014251 15.5024762785751324 N
atom 1.6021650226612538 12.4791370165088829 4.7340900257523746 N
atom 1.6432289762510779 12.4135239001506879 10.1163258221343106 N
atom 1.7086482495483051 12.4527989949196840 15.4684515419528150 N
atom 16.5327488624761578 15.3318071868764960 4.5993866279041402 N
atom 3.3304696172114876 9.6230788978298492 4.8544108046607786 N
atom 4.9832222784004099 6.8012004297046094 15.4991089456114377 N
atom 4.9506017766648620 6.7843879127140596 10.1815479057786149 N
atom 4.9454892741909129 6.7899386208616459 4.6824358971357052 N
atom 6.6245093038817817 3.8593466540588395 15.5384518479455345 N
atom 6.6260328486634910 3.7940841502640921 10.2151928398499674 N
atom 8.3664738917221850 6.6778735941709906 15.5157604151599546 N
atom 8.3143503604200735 6.7622093777143668 10.2006664631849837 N
atom 8.3028767146908251 6.6355173352750620 4.7608603800004019 N
atom 9.8641623764989959 3.7970754171421852 15.4965292092408653 N
atom 9.9320957161086785 3.8679456831102512 10.1667506611296119 N
atom 9.9191959407085530 3.8574740132157630 4.7252239319031784 N
atom 11.5397829775448528 0.8985746591315942 15.5102862614578783 N
atom 11.5879047297964952 0.9386645396312212 10.1578599326403118 N
atom 11.5432388926414475 0.9447849070770736 4.7177335163663869 N
atom 0.0094058097233597 15.3808048650480647 15.5762857817236178 N
atom 16.5723547626060075 15.3158064265154330 10.0710983249992196 N
atom 3.2079982865129919 3.8542696953922313 10.1962356733806381 N
atom 3.3487457904508626 3.7485163660379617 4.7491728412061329 N
atom 5.0556352737748433 1.0106208996155723 15.4381655885794249 N
atom 5.0079559368915456 0.8726383444567654 10.1032559281795677 N
atom 4.9413947349499923 0.8787805858818603 4.7318424832946091 N
atom 0.0183929050876934 3.7324736033274335 15.4654855408201719 N
atom 16.5697594119357774 3.8496080201214289 10.0341540191773735 N
atom 0.0546042226581015 3.7431878752117957 4.7588383946939503 N
atom 1.5581117554314770 1.0273618463792102 15.4873889878384237 N
atom 1.5734392624425011 0.8815374868085738 9.9966577294823455 N
atom 1.7170436433905205 0.9734643783347907 4.6914351304765276 N
atom 6.6119621037061522 3.8896673992986908 4.7348959168697204 N
atom 8.2562037509908333 0.9020678047857639 15.4676663969024393 N
atom 8.2380539152260237 0.8513491186425041 10.0667189006907343 N
atom 8.2475674007931374 0.9625829804413869 4.7017286410506829 N
atom 0.0373573186471263 9.6045666746943024 15.4857132456524074 N
atom 16.4925418345693124 9.6906638255529671 10.0381056601310199 N
atom 16.5199031553438225 9.6202232119546718 4.7670597892718840 N
atom 1.6370687828597510 6.7624953251529201 15.5088042144295866 N
atom 1.6888545143779681 6.7308864762613094 10.0510612503247092 N
atom 1.6904728617635729 6.6632772778327238 4.7855496264237276 N
atom 3.2670030631100206 3.8979501002955566 15.4088917978548334 N
atom 11.5746678926072395 12.4029342008237169 4.7593960456319682 N
atom 13.3308257641476864 9.5009384743090983 15.4545143730484220 N
atom 13.3272839320953693 9.6807101649121261 10.0322481174871552 N
atom 13.2648526268217282 9.5947728508991048 4.6667582244357666 N
atom 14.9556845356878814 6.6741348477296727 15.5979216896321429 N
atom 14.9167493499878869 6.7565094724912633 10.0972885623534392 N
atom 14.8965045518496204 6.7293407880790808 4.7344611556334621 N
atom 6.5725500431547621 15.3625345126259916 15.4547946760148562 N
atom 6.6843422210402093 15.3032537889572087 10.2630359295691669 N
atom 6.6304210360069114 15.3685782325138121 4.7405337658152202 N
atom 8.2452715923519353 12.4197623558670998 15.5524855699414299 N
atom 8.3037659286502272 12.4318558034759441 10.1446774164389932 N
atom 13.2203669123533807 15.3136033242936342 15.5705980316004222 N
atom 13.2126166746194524 15.3387129504266859 10.1550783407798004 N
atom 13.2388779494545190 15.2441383597245839 4.7951158071588127 N
atom 14.8920113162145267 12.5678118762457647 15.5692136064635793 N
atom 14.8488692389587005 12.5401644039124029 10.1112439212029841 N
atom 14.9373969995801072 12.4071435834317132 4.7881167861639886 N
atom 9.9608795838035835 15.3190586155298654 15.5275537324449946 N
atom 9.9373778271625692 15.3899290142667358 10.1201226051294153 N
atom 9.8558712007249092 15.3268606754407894 4.8169604478173884 N
atom 11.5889079120332301 12.4701042880684128 15.4984379196159185 N
atom 11.5504678169951305 12.3679384827656467 10.1984555674593285 N
atom 14.8720764747515748 1.0133460026834997 10.0557844941734444 N
atom 14.7824060136519453 0.9535764371565582 4.6626529745604097 N
atom 3.3329772735012622 15.3052264795368522 15.5167514528573811 N
atom 3.3476973235931871 15.3490916349583504 10.1535353337070351 N
atom 3.3063348734391154 15.3559852112523885 4.6984424709174295 N
atom 5.0162370893587269 12.4421188926111501 15.5778302112904239 N
atom 5.0236158869906076 12.4165730845407936 10.1047427116743904 N
atom 4.9763145908890873 12.4254369274363103 4.7751940461560691 N
atom 6.7788967343233812 9.6010114087457534 15.4663897726407011 N
atom 6.6228207301191082 9.6033136637298426 10.1551404725861545 N
atom 6.6389112750839114 9.5622816568728073 4.7173197162017875 N
atom 8.2839146220544428 12.4117345985108916 4.7779020726787325 N
atom 9.9360588114584090 9.5278966079948848 15.6782003752384291 N
atom 9.9613046268289143 9.3984335812139612 10.1993462577538914 N
atom 9.9311165738993026 9.5157466053246029 4.6535049292398902 N
atom 11.6128053118489181 6.7788867650416629 15.5331304139462514 N
atom 11.6522069754985651 6.7043028204807298 10.1479780756682914 N
atom 11.5934810272543931 6.7697605267363024 4.6751947030603498 N
atom 13.3194072975263929 3.8623987371207313 15.4901764592052320 N
atom 13.2865068547253031 3.9220530897947299 10.2197123775284346 N
atom 13.2942814827833526 3.8287875207480604 4.7139669689891086 N
atom 14.8724111918519011 0.8991770667039369 15.5079839377137763 N
atom 6.7029862606522688 7.6886827880620743 1.9291846128089649 N
atom 8.2398435616102041 4.7807260331880119 12.8175429966722199 N
atom 8.3886109778808198 4.8533383646559320 7.4264732168368939 N
atom 8.2685013853789933 4.7886727946569971 2.0270099642506874 N
atom 9.9751390646551634 1.9465060382891759 12.6968532124142683 N
atom 9.8701468297264885 1.9349395619054068 7.4263610203982831 N
atom 10.0106853504136080 1.9055978164740557 2.0909443694011256 N
atom 0.0134074531134760 13.3625653681143088 12.8674272833246270 N
atom 16.4549525939617887 13.4490711286611191 7.4401398286411906 N
atom 16.5294729750345972 13.3684042116805095 2.0912062998463568 N
atom 1.7645360564806136 10.6157425268301928 12.8074699716800975 N
atom 1.5508674546698142 10.5650116345768232 7.4090075563385751 N
atom 1.6772394317613155 16.2828016233342758 12.7772648637702453 N
atom 1.7222557896165029 16.2047140025855150 7.3518658403606141 N
atom 1.6006748691223101 16.1997194549661039 1.9557974188807816 N
atom 3.3118230777925826 13.4298599776270997 12.7512877973718251 N
atom 3.2566121988876260 13.4465520185874201 7.4530837438337292 N
atom 3.2898333510162328 13.4083133924747990 2.0508128573610995 N
atom 4.9962323109338822 10.6133101495412046 12.8875165823029896 N
atom 5.0221381934466276 10.5401098584781661 7.4773937334835079 N
atom 4.9115667356048620 10.5215705675394364 1.9882878931775241 N
atom 6.7629826091208933 7.6755442002243504 12.8101672662873298 N
atom 6.7550915556080611 7.6528128172331931 7.3988509770957478 N
atom 16.5742782783787845 7.6621095137215853 7.4164536135292067 N
atom 16.5826599318955026 7.6241187392575274 1.9576038368652555 N
atom 1.5917183478438761 4.7487641659901927 12.7392625873869445 N
atom 1.7557088350049750 4.7293608481855136 7.4617722591632738 N
atom 1.6960034972142239 4.7657992625033216 2.0728843447339944 N
atom 3.2849662951191081 1.9911865265453723 12.7836124859395461 N
atom 3.2337351996721484 1.8699704136503499 7.4510494570676515 N
atom 3.2550163631472011 1.9570931744607731 1.9964284128392122 N
atom 0.0461296287200060 1.8249135719279654 12.7091982601688667 N
atom 16.5384605608027506 1.9375407967137417 7.3780342659812499 N
atom 16.5604910298170616 1.8176378600271199 2.0685952622603505 N
atom 1.6852319506848277 10.5250554345497598 1.9658135739814895 N
atom 3.4328749244006960 7.6176174580689500 12.8423959424816498 N
atom 3.3014997813217835 7.7924879858215599 7.4722581098669112 N
atom 3.3073492924136492 7.6351531320130643 2.0170945954966322 N
atom 4.9834159081616498 4.8422227078277835 12.8548899633810052 N
atom 4.9467284286041453 4.7761288824847385 7.5225048092838049 N
atom 4.9045132679508923 4.8897523962570064 2.0506054851561228 N
atom 6.6092367997526944 1.8552016251871073 12.7673407911022228 N
atom 6.6670840290218640 1.9818330942518931 7.4125727664283971 N
atom 6.6561265254873279 1.8610285402173932 2.0105023784484501 N
atom 0.1329115780989047 7.7152347808615191 12.8672855036949745 N
atom 14.9457992220643234 10.4760377497854869 2.1549956029020572 N
atom 8.3229576463865662 16.2512239530420075 12.7675150884454229 N
atom 8.1877200277765230 16.2969927687057243 7.4567942482250551 N
atom 8.3597450957589423 16.2939474286169457 2.0525286704277028 N
atom 9.9085821576207422 13.4222464486083446 12.8295389587865660 N
atom 9.8507800444125184 13.3655633851548217 7.4436811975148771 N
atom 9.9345088498177976 13.3117999941226532 2.0035188348586583 N
atom 11.6012334706390767 10.4365674832337039 12.7716156427769398 N
atom 11.7021953924235405 10.5403741408827010 7.3915466557063638 N
atom 11.6763699346988687 10.5059128955582217 2.0678708361080269 N
atom 13.4011375396006756 7.6763992404207766 12.7841758232970157 N
atom 13.2964010123616916 7.6997991884786146 7.3815005229646262 N
atom 14.9309022394707238 16.2655988638350095 12.8557648239852185 N
atom 14.9428815261059871 16.3095589385804551 7.4355174633424017 N
atom 14.9204452853876344 16.2740768204488226 2.0404124475930954 N
atom 11.5654515377133826 16.2876423341569918 12.8511170339805716 N
atom 11.5742339728415811 16.2545138135041540 7.4606502890590862 N
atom 11.5803409979620078 16.2124785961709392 2.0523614366747518 N
atom 13.2396463505757893 13.4785386940262093 12.8834943959079418 N
atom 13.2874216494013471 13.4290593282487905 7.4460056453823276 N
atom 13.2519526452661651 13.3487764900446439 2.0145794519256506 N
atom 15.0116515860653834 10.5850886432367126 12.8570817447171173 N
atom 14.9855977008057550 10.5741586417383449 7.4041997280460077 N
atom 8.3758674080196460 10.5042706652129088 7.4752775307819537 N
atom 8.2140801413396964 10.5287279813570720 2.0067035934035258 N
atom 10.0165433490983453 7.6504826844542562 12.8120987977226548 N
atom 9.9445668642200218 7.6584243926685600 7.4356336965249401 N
atom 9.9612468445825755 7.6993658290954494 2.0628375677324113 N
atom 11.6490709070081362 4.8197384540915849 12.9829437712670632 N
atom 11.6569436856936122 4.7764144695597039 7.3920367765914552 N
atom 11.6043497092773613 4.7260278281268926 2.0613263957519452 N
atom 13.2631410307490256 1.8865022121155604 12.8809514862091774 N
atom 13.1927282809435908 1.9793067252452501 7.3417521564215713 N
atom 13.1975014741769687 1.8980384257109895 2.0513346599533886 N
atom 13.2026884569759115 7.5916062451359361 2.0438957333674415 N
atom 15.0316161551516565 4.7476240977438060 12.8192666400502535 N
atom 15.0009170183834115 4.7973871977545803 7.4052570385181706 N
atom 14.9032384537065887 4.7483734832597806 1.9607890538884254 N
atom 5.0412302063916377 16.2952782155702813 12.8073013126352961 N
atom 4.9783967093217401 16.2415223496585917 7.3701332885691366 N
atom 4.9823816088907922 16.2820540023078273 1.9845207031936209 N
atom 6.6608519193794580 13.4044605044566243 12.8611378058941508 N
atom 6.6189768230614581 13.3804258038684143 7.4095702790008593 N
atom 6.6439967878677537 13.3904456577019459 2.0845285223090251 N
atom 8.2987419585851114 10.5446886839045320 12.8392354484819435 N
