#===============================================================================
# Created using the Atomic Simulation Environment (ASE)

# Thu May 11 09:00:39 2023

#=======================================================
lattice_vector 16.5841519999999996 0.0000000000000000 0.0000000000000000 
lattice_vector 0.0000000000000000 17.2347563186669994 0.0000000000000000 
lattice_vector 0.0000000000000000 0.0000000000000000 16.1779175999999900 
atom 0.0064772782318605 15.3183903586314845 2.8108929988275348 Ga
atom 1.6039637725184852 12.4960029389305269 13.5350057833850705 Ga
atom 1.5758276608607193 12.4190958000562315 8.1276277181985748 Ga
atom 1.6317082161632741 12.4040295206576268 2.7345098442060549 Ga
atom 3.3655669385518081 9.5997758092011054 13.5636121004240788 Ga
atom 3.3189173837843646 9.6872339408224395 8.1009707619349065 Ga
atom 3.3042336934012302 9.5574393842704275 2.7765004616297246 Ga
atom 5.0128837637390058 6.6667605889354355 13.5150316903442214 Ga
atom 4.9048696027636725 6.7183400677268050 8.0420867494347430 Ga
atom 5.0158184893406288 6.7218778287738790 2.7105355381310052 Ga
atom 6.5511974100703583 3.8947643834724603 13.4058387809598170 Ga
atom 6.5818255986555547 3.8851072000839335 8.1111993231480053 Ga
atom 8.2897105416151771 6.7132353149325068 13.5195802858261516 Ga
atom 8.1851912619213358 6.7059494028655307 8.0152473834036542 Ga
atom 8.3607020523861415 6.8031246536077026 2.7647551797127892 Ga
atom 9.8589397173687736 3.7783531893057583 13.5135187555133438 Ga
atom 9.9644178922214568 3.8326654970249452 8.1138128061911949 Ga
atom 9.7791702336534527 3.7925294420055216 2.7739414113209317 Ga
atom 11.5693305768124297 0.8862052371403621 13.4597787119500047 Ga
atom 11.6856998699125185 1.0083146112557444 8.0677449355819704 Ga
atom 11.5062688371235211 0.8836192383257430 2.6392399215365838 Ga
atom 16.5480729186460565 15.3656038169779965 13.5297761495966427 Ga
atom 0.1001857412326872 15.4459069652415089 8.1377816188664962 Ga
atom 3.3738485066642743 3.8764993564384249 8.0301516272944689 Ga
atom 3.2407968907649569 3.7583425166069673 2.6820499512473788 Ga
atom 5.0229080932682599 0.8747777162998064 13.3728863761561261 Ga
atom 4.9970324993468962 0.9956952107960041 8.0088257531015614 Ga
atom 4.9205318465628984 0.9878949297875140 2.7443858176696869 Ga
atom 16.5117520537756803 3.7999589377422098 13.4591361714155795 Ga
atom 0.0381935401657816 3.7828399391603731 7.9944115629429175 Ga
atom 0.0215704222500419 3.7600628545992252 2.6153935858642017 Ga
atom 1.6691345876207333 1.0155725067794668 13.3639271843041705 Ga
atom 1.6855965631583310 1.0450760674730932 8.0574087940211143 Ga
atom 1.6372422032587721 0.9015836240286729 2.6678611482221064 Ga
atom 6.5237909484979841 3.7274034846439013 2.6605316906349499 Ga
atom 8.2576921793328513 0.9549812994034684 13.4569422206134384 Ga
atom 8.4547182897983308 1.0185167387997549 8.0594830130870871 Ga
atom 8.2391840166148480 0.9996745480464337 2.7174074743466985 Ga
atom 0.0318569456623445 9.5289881860871901 13.5810401495351947 Ga
atom 16.4300009211260623 9.6227154036372582 8.0069457725789892 Ga
atom 16.5197559275584425 9.5142877795243503 2.7656118585839238 Ga
atom 1.5908153730558250 6.6600807618026616 13.4082643674627988 Ga
atom 1.5950691654046434 6.7223432079427896 8.0750453540107152 Ga
atom 1.6581575127486459 6.7073237155555079 2.6338671239936269 Ga
atom 3.2608868272169160 3.8517096098558352 13.4121078872866857 Ga
atom 11.5527238748610088 12.5198459965386899 2.7066497307038353 Ga
atom 13.3556941990591334 9.5550630272016814 13.4398012138410792 Ga
atom 13.2333902577221654 9.6506068663240416 8.0565512774548171 Ga
atom 13.2579661415019547 9.5876794864705666 2.7669639027945849 Ga
atom 14.9757000866208028 6.6140424050626345 13.5096699947098760 Ga
atom 14.8797937820319071 6.7498511477358765 7.9710148399403060 Ga
atom 14.8868423944856563 6.6480567649876035 2.6065280722261521 Ga
atom 6.6086133950398862 15.3131549300573901 13.5657245696904809 Ga
atom 6.5908153266448943 15.2451564437868452 8.1059794370671234 Ga
atom 6.5574198832355171 15.3595841695818116 2.8072079644334411 Ga
atom 8.1789790724765581 12.4472274027108973 13.5333374736079683 Ga
atom 8.3479918336012471 12.4516361513057863 8.1169428942543860 Ga
atom 13.2886327961925375 15.3215537230778001 13.4122345449962950 Ga
atom 13.3511432976981190 15.3659071705973389 8.1838739297968708 Ga
atom 13.4121586231534931 15.2225157897406103 2.7202795219208395 Ga
atom 14.8624092162532033 12.4795415126565761 13.6278899032077785 Ga
atom 14.9763158156255312 12.5270126255747467 8.2152986098197012 Ga
atom 14.9653270081937819 12.3631634876458332 2.6598622266843517 Ga
atom 9.8818653835716805 15.1668495518872639 13.5279140266966440 Ga
atom 10.0037091338959261 15.4558330364970189 8.0458203423738102 Ga
atom 9.9385688137796411 15.3537690345610702 2.6800021046721834 Ga
atom 11.5492093259777597 12.3668951905354074 13.5013201490359425 Ga
atom 11.5180577680680294 12.4047394816761063 8.0269975937185354 Ga
atom 14.9783261841964013 1.0256316537053003 8.0849476156479216 Ga
atom 14.9771890584364264 0.9696710539908692 2.7078749278079042 Ga
atom 3.3615557125235678 15.3631232005812137 13.4007552596555453 Ga
atom 3.3771108150567408 15.3125501058195876 8.0974118399138515 Ga
atom 3.1995890174351933 15.2149676486517471 2.7015483238139426 Ga
atom 4.9666246256426083 12.4791333259629518 13.5008979745638413 Ga
atom 4.9403898577250249 12.5641942485683789 8.1201188390229913 Ga
atom 5.0372011873705009 12.3458455488853698 2.7114854404064093 Ga
atom 6.7149491727288639 9.6464337857734375 13.4176252349690994 Ga
atom 6.5706665155339099 9.5999097987464506 8.1526266248605808 Ga
atom 6.6786404204478087 9.6739474633617704 2.6318819925873891 Ga
atom 8.3353506410466043 12.3554680244202615 2.7839976697855424 Ga
atom 10.0205573317479786 9.4829986579939280 13.5602428382487261 Ga
atom 9.8561502563551144 9.4812299086214562 8.1265732451642609 Ga
atom 9.9589633875635428 9.5843642370285504 2.7358865914043142 Ga
atom 11.5175056344824558 6.6959323262364965 13.4360961115164184 Ga
atom 11.5783893751138542 6.7005934371134952 8.1121640982936327 Ga
atom 11.6405900236287376 6.7288728696416520 2.6941709607971274 Ga
atom 13.2094116939572768 3.8063561489560183 13.4982503798357119 Ga
atom 13.3302768998809054 3.8175919962679226 8.0859103992046943 Ga
atom 13.2445391558624870 3.9029946826025821 2.6016740244757393 Ga
atom 14.9918997485472278 0.9900987787085753 13.4855458037137943 Ga
atom 6.5502313099278400 7.8484159942119458 5.3067975443031674 Ga
atom 8.2449346131155643 4.7864359303260660 0.0605478632002260 Ga
atom 8.2988956534033509 4.7666681084029250 10.7207828536999425 Ga
atom 8.3031411923920402 4.8496221743586112 5.3717042760690461 Ga
atom 9.9438227860749642 1.8903253055328919 16.0790021089934285 Ga
atom 10.1608071106607660 1.7972887970468820 10.8478475478627931 Ga
atom 9.9457812241664509 1.9753754913814929 5.4073452572093990 Ga
atom 0.0674568744001072 13.3658904959107776 0.0708485875871103 Ga
atom 0.0166067535168553 13.4392702305056719 10.8795408297745304 Ga
atom 0.1023847025052515 13.2950727419602313 5.4687161274971787 Ga
atom 1.6498607989160763 10.5967361340145576 0.1489088928048018 Ga
atom 1.7571056315473843 10.5056697580896383 10.9300974226524197 Ga
atom 1.5972535052494805 16.2599345656189769 16.1145175748004839 Ga
atom 1.7437084843624582 16.3217143669030023 10.8171754342513982 Ga
atom 1.8031011650505739 16.1829511172756959 5.4310899455254829 Ga
atom 3.3369574853118182 13.4713464326936094 16.1554821520175302 Ga
atom 3.4682442467664991 13.3497781079254114 10.8625414978856316 Ga
atom 3.4353659582547849 13.3112061645822113 5.4026479951472908 Ga
atom 4.9447524465457313 10.4755403086332546 16.1120346833221859 Ga
atom 4.9240153128465316 10.5261451736220444 10.8072039437354466 Ga
atom 4.9790420394982826 10.5825584815371858 5.4616055941175468 Ga
atom 6.7427778537229459 7.7178191058862406 0.0036023700034371 Ga
atom 6.6951941420781802 7.6151382584351444 10.8359210856152384 Ga
atom 0.0259428273679657 7.6900965314494050 10.7180615355794302 Ga
atom 16.5518221778254677 7.7266935754512316 5.3753894202125156 Ga
atom 1.5604137583017150 4.6935349128582420 16.0896501107880212 Ga
atom 1.6877242158830144 4.8748824127231893 10.6799047018218385 Ga
atom 1.5820209891938732 4.7583035854955718 5.3391621109847893 Ga
atom 3.3671998142486093 1.8580787131797507 16.0835110309260472 Ga
atom 3.3298911354738245 1.9120503479207220 10.7643738208427830 Ga
atom 3.3099098447141255 1.9609066799816903 5.4562806214579576 Ga
atom 16.5828899686267164 1.8397539402158114 16.1424809540292813 Ga
atom 16.5443287040517433 1.9276876122366320 10.7616185954990300 Ga
atom 0.1664556272008685 1.9167764325247156 5.2474555455925653 Ga
atom 1.6505925472250622 10.5841728212929098 5.4210500670587827 Ga
atom 3.2848118518599114 7.6032136308009362 16.1089859795476542 Ga
atom 3.4384425896779574 7.6099960239371178 10.7483096769002291 Ga
atom 3.3305481665405994 7.5970082645567949 5.4412522147808779 Ga
atom 4.8861068836473809 4.8539731364638961 0.0104292159356062 Ga
atom 4.9954534096773404 4.7541175795285140 10.7002164805537312 Ga
atom 5.0685104212017729 4.7517655710563371 5.3453951327445477 Ga
atom 6.6513377142609800 1.8824569007234382 0.0357840810073124 Ga
atom 6.7027370078108968 1.9132509859485258 10.7423631485553663 Ga
atom 6.6474402439811815 2.0036412267823351 5.3762566876104767 Ga
atom 0.0280615270703627 7.6917186217584623 0.0281967318172907 Ga
atom 14.9285093112510925 10.6313491085587408 5.3923033078625737 Ga
atom 8.2226561547472201 16.2463641263389604 0.0126379917887984 Ga
atom 8.3573020786671517 16.3371760077447696 10.8154359084798912 Ga
atom 8.3120609235429050 16.2938631168760111 5.3366007202567793 Ga
atom 10.0032911082346097 13.3750287597816637 16.1094621007444303 Ga
atom 9.8906510616684482 13.3578211032631913 10.7799249782680313 Ga
atom 9.8700095626116582 13.4119564687489774 5.3553019462404476 Ga
atom 11.6106864557767082 10.5150439077752633 0.0710538431050571 Ga
atom 11.5434620394205414 10.4448060985959863 10.7584173859052648 Ga
atom 11.5844689785734491 10.5774693697595819 5.3739663235340016 Ga
atom 13.1864451830145750 7.7521035636999276 16.1058553461388314 Ga
atom 13.2898475110456236 7.6035182228442029 10.7470705002116595 Ga
atom 14.8647835858987651 16.3251797177950735 0.0661062773097267 Ga
atom 15.0104250008285494 16.2353514608085412 10.8360727919538178 Ga
atom 14.9282334435950830 16.3087309583578062 5.5021608513197480 Ga
atom 11.6642423393479078 16.2953980153512461 0.0826516578535366 Ga
atom 11.6184725396405781 16.2110251198682533 10.8543663297628150 Ga
atom 11.6156397902556137 16.4235820317865411 5.4000885804647165 Ga
atom 13.2265260138827809 13.4477921698069114 16.1692454680621580 Ga
atom 13.2087166341377280 13.3047345325500199 10.7111158830723294 Ga
atom 13.2022414055831714 13.4702313850083275 5.3407248802858218 Ga
atom 14.9701948791994894 10.5197518236092762 0.0746280632079883 Ga
atom 14.9145584125315533 10.3716191181215613 10.7770846705945118 Ga
atom 8.3250878629022420 10.5187517857763275 10.9197564426302201 Ga
atom 8.2465988435423281 10.5125012239263835 5.4759899934859035 Ga
atom 9.9383529157426658 7.6300620516476414 0.0278412189002024 Ga
atom 9.9405064858324916 7.5313949527423301 10.7122932552608354 Ga
atom 9.8467353784811227 7.7432487969762640 5.4466321213719295 Ga
atom 11.6437386023095488 4.8380420321739379 16.1727699755502456 Ga
atom 11.5778468686081197 4.7374054298847197 10.7270474263095483 Ga
atom 11.5726832750896662 4.7962944864625685 5.4010957238558559 Ga
atom 13.3076863255030435 1.8377047718063615 0.1000214250675019 Ga
atom 13.3384988732109981 1.8488123832901506 10.8138660722667961 Ga
atom 13.2332803891712540 2.0186213840877612 5.3072073948927230 Ga
atom 13.3435146909804683 7.6223583049845480 5.4723062774474638 Ga
atom 14.9386325562055138 4.8237094838916521 16.1474372717327945 Ga
atom 14.8897717932306239 4.8275452287434835 10.6953345172414043 Ga
atom 14.8378204915179222 4.7797027334994997 5.3452567071537747 Ga
atom 4.8994959409919145 16.2642367058236985 0.0759158500500605 Ga
atom 5.0486472165306857 16.2768822066766568 10.7277543148812171 Ga
atom 8.2585075448564513 10.5234200382084424 0.0047127734564588 Ga
atom 6.6021413794656034 13.4104017541378457 5.3277403431352317 Ga
atom 6.7024460910475847 13.4291790504686990 10.7799500436597491 Ga
atom 6.6496024871002355 13.3585068209715399 16.1266696910843663 Ga
atom 5.0539017698355222 16.2633707617732810 5.2898388889583945 Ga
atom 3.3905572520465936 9.5565281749633861 10.0824121036374770 N
atom 3.1889926558153063 9.6153433595772846 15.6028292582607602 N
atom 1.6850968714425432 12.4563326592358834 4.8053361652885789 N
atom 1.7352437863347969 12.4601927909816350 10.1464263515014110 N
atom 1.7035309268177723 12.4720546682560016 15.5589988661475704 N
atom 0.0414507291928846 15.3737159796104006 4.8666094465437153 N
atom 3.3343083004053731 9.5766903787109641 4.8744816942296971 N
atom 5.0462335294556793 6.8811992387628669 15.5424201434145139 N
atom 5.1613757855117397 6.6698221038132033 10.0403393636868081 N
atom 4.9956932809634313 6.7756686609605854 4.6973126282222788 N
atom 6.5145852179175474 3.9295466781239123 15.4294197705724763 N
atom 6.5850421666418484 3.8644368436860392 10.1170451423620893 N
atom 8.2982419340713296 6.7712272402463194 15.5082566925055136 N
atom 8.1887921348592823 6.6207491400535030 10.0853136609510319 N
atom 8.2134953881600090 6.7748241315093880 4.7169561053615530 N
atom 9.9234764005245388 3.9203618197527246 15.5644684153043293 N
atom 9.8782680412215829 3.7526754801914501 10.2075490613877058 N
atom 9.9240508767257989 3.8652037272373319 4.7519168370038134 N
atom 11.6579306162002130 0.8510138018787546 15.5272818997118893 N
atom 11.6400642772993574 0.9286852815045950 10.0679850592341626 N
atom 11.5266312533937239 1.0380157256628610 4.6555629237719183 N
atom 16.5327016486402236 15.2993805213326031 15.5620520227331145 N
atom 0.1185579515687233 15.2983153658826065 10.1161824694734754 N
atom 3.2341166890374544 3.7763476804766865 10.0222264352191814 N
atom 3.3256944961299770 3.8423952280902856 4.8020151682381762 N
atom 5.0319554761675036 0.8527439913225265 15.5283803988734874 N
atom 4.9445785142140055 0.9853054518288299 9.9759523792670048 N
atom 4.9928347438597669 0.9545809092973836 4.6655622004055726 N
atom 16.5003033187548738 3.8028967046195161 15.4666414962130077 N
atom 16.5663548593604482 3.8810644435531301 10.0863300924308739 N
atom 16.5323364378468334 3.8111096590983089 4.5881230244059363 N
atom 1.6665615737726840 0.9214579824187560 15.4267848732835784 N
atom 1.6562063715878519 0.9812908714835532 10.0275913465105422 N
atom 1.8336558943849068 0.9211011536735517 4.6614866005973736 N
atom 6.6864336544319931 3.8403335895375315 4.6239344866381193 N
atom 8.2767688835372013 0.9928015364173681 15.5063084958052784 N
atom 8.4164189074439193 0.9656604491321984 10.2517992901204025 N
atom 8.2846284589286743 0.9873014783016197 4.8360491520373445 N
atom 16.5734756536583170 9.6322273751474512 15.5489827965251557 N
atom 0.0489995418288733 9.5468952811155035 10.1114650821038765 N
atom 16.5255341496307615 9.5514675104187017 4.7508432077399796 N
atom 1.5717263506871630 6.6297983045423932 15.3932033300132503 N
atom 1.8092574689663707 6.7723504506696415 10.2023817377438757 N
atom 1.6505732467300955 6.6916444841815741 4.6242928560108467 N
atom 3.2254098910286042 3.7511002475039961 15.4046949713142780 N
atom 11.5584162049649510 12.4577959666921938 4.6295092128429269 N
atom 13.2413376537908700 9.6590370383681545 15.4923543582450129 N
atom 13.2508165208637578 9.5165972057597319 10.0628672554401106 N
atom 13.1922006358913304 9.4955416420049286 4.8668360388449106 N
atom 14.8326765491154191 6.7153973766790047 15.5089726522882820 N
atom 15.0352559823909608 6.7416730258355466 10.1077001411491629 N
atom 14.8678369092008005 6.6780534326559016 4.6445460128561331 N
atom 6.5658161468209801 15.2501712584568043 15.4800997395633821 N
atom 6.7212071987824906 15.3682642646260934 10.0877603707795078 N
atom 6.7570823057195000 15.3165568262999177 4.8255645941170879 N
atom 8.3088930791553715 12.4095206211780233 15.5197013455591701 N
atom 8.3187824500157603 12.4587720711819312 10.1119926156024622 N
atom 13.2522776341438906 15.3244822021807749 15.4502494282263410 N
atom 13.2677734362564212 15.2885146761575825 10.1622695404284293 N
atom 13.2759906294617540 15.3717964964994760 4.6716832792875911 N
atom 15.0054011697368033 12.4234638157519370 15.5911755825707719 N
atom 15.0651702438025445 12.4101480886330844 10.0954856549330820 N
atom 14.9900296410966405 12.4654310174078109 4.6633665955385144 N
atom 9.8956696124758174 15.3231964631520583 15.4939186739152124 N
atom 10.0000108719920640 15.2884531601534004 10.1436844490723956 N
atom 9.9449516869214349 15.4262871940199311 4.6814043435733925 N
atom 11.6609653683688350 12.4960114193047822 15.5880172375231734 N
atom 11.6703068829369201 12.3343550199526337 10.1457810839306415 N
atom 14.9579010660089118 0.9331775250577409 10.0419262150456063 N
atom 14.8805946008324206 1.0744188175728520 4.6681954461007287 N
atom 3.2961226433125912 15.3476977086963604 15.4328610564556676 N
atom 3.4189503619707673 15.2379776607496176 10.1977673080458029 N
atom 3.3873764291982291 15.2225020352103559 4.7176206872200970 N
atom 4.9630074806926059 12.3609346365969301 15.4495285417190704 N
atom 5.0759952059359312 12.4767412915668121 10.2227412479213058 N
atom 5.0799336111728115 12.3483681938325809 4.6886216266530472 N
atom 6.6919132533585426 9.5612569215228884 15.4624598852131356 N
atom 6.6885066777500093 9.6397133120360774 10.1296454978398245 N
atom 6.6879596442840565 9.8069238357104549 4.6494839408340400 N
atom 8.3481919635002999 12.3860475957812213 4.8209721438875111 N
atom 9.9680053195067568 9.6029146007635919 15.5076707399338147 N
atom 10.0458585947195473 9.5678815922827685 10.1410232687562836 N
atom 9.8124115155947464 9.5904091535463554 4.7621454568885566 N
atom 11.6177378813703100 6.7405319974496747 15.3793497806115731 N
atom 11.6122848391057403 6.6517653423780079 10.1649278080405487 N
atom 11.5843067926567791 6.8199887254466978 4.7967400902828494 N
atom 13.2696005806058182 3.7805257331848598 15.5639590606083509 N
atom 13.2091318849289490 3.8101499130966241 10.1568020114080788 N
atom 13.2092703864078498 3.8708797637074017 4.5780942149086377 N
atom 14.9741912307460776 1.0294310987699029 15.4547568823242010 N
atom 6.7653337719320321 7.7461000607786916 2.0388209545507898 N
atom 8.1989956345334534 4.7279528925985232 12.8427318328544935 N
atom 8.3191097072014877 4.8309732864704040 7.3973044449681451 N
atom 8.2582585259040275 4.8567757853058948 2.1421203914535432 N
atom 9.9499830356630170 1.8391020224796353 12.9196690131618688 N
atom 10.0870088729327385 1.9472798172308727 7.4904426887345048 N
atom 9.8722224314147873 1.8323706709072483 2.0193795938799006 N
atom 16.5006387927913885 13.3845331301059538 12.8998097730890464 N
atom 0.0546449863499824 13.4984566979248370 7.5419953197834655 N
atom 0.0528943774124708 13.3754883772846735 2.0624615316892774 N
atom 1.7469536495762028 10.5361994164441555 12.8705186418651358 N
atom 1.5476854930951975 10.4852656141744127 7.4182505648138122 N
atom 1.6539401949056101 16.2777226673781215 12.8334780275824496 N
atom 1.7689774200453772 16.3810938674343909 7.4863278013317949 N
atom 1.5945732798799350 16.2959926052010680 1.9807943207598702 N
atom 3.3213404398893061 13.4405793100940176 12.8209104510846732 N
atom 3.2579284259782373 13.3331339312210719 7.4166915476814754 N
atom 3.4218285008989620 13.3103213271476797 2.0729775132715034 N
atom 5.0252192933266011 10.4738703127344461 12.8168430821843682 N
atom 4.9165107783940245 10.6626079478022824 7.4933081163261193 N
atom 5.0773091593927040 10.4112675850711902 1.9218643514317482 N
atom 6.7456297521127846 7.7701320301512835 12.7917036436068372 N
atom 6.5294371787597969 7.7131000617007119 7.3580658368631644 N
atom 0.0359273434691219 7.7694530028129885 7.3872181271769630 N
atom 16.5429103482500466 7.6820647584509878 2.0161001689229603 N
atom 1.6055633800360505 4.7311777558668275 12.7248393390113055 N
atom 1.6747969683296171 4.7365487512298197 7.3292999976302484 N
atom 1.6386680327422343 4.7463823815634578 1.9168841422895311 N
atom 3.3587507805727594 1.8917345870176070 12.7624358885944265 N
atom 3.2581451883125552 2.0065004427716455 7.3060585466662920 N
atom 3.3729842599996021 1.9079553031581269 2.0475616560934413 N
atom 16.5257428794361978 2.0022813987792700 12.7494062077903330 N
atom 0.0721950828124227 1.9818628084610417 7.3248050972343837 N
atom 0.0666478590703673 1.8959162911534677 1.9444350200383300 N
atom 1.6789768532299190 10.4838999812275961 2.0393729324408900 N
atom 3.3716646309110101 7.6157960737203485 12.8543962322310144 N
atom 3.2497214697981192 7.7241274667523552 7.4944026111133741 N
atom 3.4141021181392954 7.6719261951638815 2.0515170271800054 N
atom 4.9890640413487661 4.9178999802668883 12.7198773762769530 N
atom 4.9827406904693365 4.8283363353676849 7.4019406772421288 N
atom 4.8879973914883896 4.8751231139800311 1.9922840506349191 N
atom 6.5385074541844785 1.9752175143716635 12.8458568869638405 N
atom 6.7010924619803340 1.9040361640310735 7.3810536349973708 N
atom 6.5792103968129281 1.8622384296679806 2.0407997248194021 N
atom 16.4664179654514591 7.7087190345872907 12.7375185039692536 N
atom 14.9513123058984405 10.4380525547016916 2.1111145623275971 N
atom 8.2988923874989045 16.2970791303509870 12.8403059649036315 N
atom 8.2935870267107017 16.3006882552192920 7.4932410254282651 N
atom 8.2010363356999267 16.3090163160859056 2.0379598385033071 N
atom 9.8972052713662872 13.3501970355432249 12.7836313293093315 N
atom 9.8897432218782786 13.4882273279831875 7.3336239091042721 N
atom 9.9731949303289369 13.3639247260309499 2.0363551137149769 N
atom 11.6694949831932870 10.4349414043749569 12.8225414879274489 N
atom 11.5038860285411690 10.4812676548712940 7.4055918281731650 N
atom 11.6277232325535032 10.4992165765298662 2.0075968418065573 N
atom 13.2675504162164017 7.5804590667674718 12.7383452652137699 N
atom 13.3434170251645199 7.7449465195235216 7.3994908080066093 N
atom 14.8758757322246513 16.3159814074532221 12.8610217933945865 N
atom 14.9409394052210249 16.3025247259458261 7.4304504751440117 N
atom 14.9125560794213108 16.2622245610162643 2.0697088050738741 N
atom 11.4319325124117004 16.2259029753008406 12.7471497396753275 N
atom 11.6150541894376946 16.3765642304192944 7.4628449438104711 N
atom 11.7621011755404332 16.2182284658202072 2.0725009716045020 N
atom 13.1542071870384198 13.3869293121380633 12.8543392060657684 N
atom 13.2568469214523841 13.5204025876734679 7.4084791580199587 N
atom 13.3526332404687427 13.4063282969979838 2.0720469560602601 N
atom 14.9346322388142045 10.5473782522688087 12.8386607984483305 N
atom 14.8755388570667701 10.7494802548728696 7.4557950051645046 N
atom 8.2255654378136782 10.5125495685787893 7.5270919787089436 N
atom 8.2573073081315798 10.4472336362545839 2.0306409912233079 N
atom 9.8087407938149660 7.5439303203544803 12.7537469015719722 N
atom 9.8965909439920594 7.6320407675918513 7.4277270862249702 N
atom 9.9295936549482633 7.6797631504096708 2.0968662830995273 N
atom 11.4908283358366727 4.6741328561305062 12.7990257704393500 N
atom 11.6219958245000292 4.6931428650803229 7.4948107659751839 N
atom 11.5180411092742450 4.7713191254120817 2.0221755769534240 N
atom 13.2885718229228438 1.8502121576884321 12.8316033675705867 N
atom 13.2753535532057221 1.9374253177628824 7.4011408933053406 N
atom 13.2473817451248461 1.8254199834125522 2.0932657548156288 N
atom 13.1878555761663758 7.7693352775951547 1.9936017870375244 N
atom 14.9180563438245084 4.6896955544290062 12.8238788320778134 N
atom 14.9962637830887306 4.7860577268053008 7.3092252341384354 N
atom 14.9242535498508158 4.7101563560353696 1.9336375187162931 N
atom 4.9415746759170078 16.3095826846039280 12.7554448564206524 N
atom 5.0111708398021113 16.3048503476007163 7.4225287430032694 N
atom 4.8053665036070132 16.2531780204194050 2.1242524767620448 N
atom 6.5367188252463144 13.4783670295734481 12.8622595894015905 N
atom 6.5854518462333127 13.3814799126530897 7.4570427677806794 N
atom 6.6241340888094822 13.3554403289241623 2.1187567027488461 N
atom 8.3709180339511686 10.6405317370359729 12.8347035608479523 N
