#===============================================================================
# Created using the Atomic Simulation Environment (ASE)

# Thu May 11 08:59:44 2023

#=======================================================
lattice_vector 16.0100851999999989 0.0000000000000000 0.0000000000000000 
lattice_vector 0.0000000000000000 16.6381685999439100 0.0000000000000000 
lattice_vector 0.0000000000000000 0.0000000000000000 15.6179127599999905 
atom 15.9522483583580872 14.8072466160037912 2.5995646996517787 Ga
atom 1.5828112441583830 11.9872879151991878 13.0109921571289924 Ga
atom 1.6044505264986255 12.0104643943451990 7.8090245374005915 Ga
atom 1.4926612590254968 12.0083573892854201 2.5599293284665317 Ga
atom 3.1990242829886588 9.1839662142959551 12.9664508771928890 Ga
atom 3.3283615755108289 9.2531747993283986 7.7988161551723874 Ga
atom 3.2010829451936624 9.2337011414272485 2.5631820541482129 Ga
atom 4.7862772207432220 6.4458121203243364 13.0046708728179237 Ga
atom 4.8569177562589276 6.4551651512237607 7.8625878080067189 Ga
atom 4.8043686154026837 6.5064971877333031 2.5651315723332448 Ga
atom 6.4716848237593005 3.6314453402691083 12.9811575604452418 Ga
atom 6.4357171517057132 3.7009818405474819 7.7532983183678619 Ga
atom 7.9492681965624996 6.4338156607083947 13.0194547523064887 Ga
atom 7.9825758313108253 6.5101074517259008 7.7448877654555535 Ga
atom 8.0069753831645176 6.5564554912057575 2.5388283115333774 Ga
atom 9.5614296838197159 3.6982959753844824 13.0305162581512590 Ga
atom 9.5676153938210398 3.7108382688341268 7.7820527468543279 Ga
atom 9.5531129543700217 3.6658719353541662 2.6191939829486244 Ga
atom 11.2132680036343579 0.8854056031717962 12.9899784411461710 Ga
atom 11.1828725380245011 0.8650058321607886 7.7860846074658117 Ga
atom 11.1451379792730538 0.9103954358436644 2.5938869853413822 Ga
atom 15.9936411074544846 14.8152714952364448 12.9994737669048188 Ga
atom 16.0018518536460448 14.7664264405153745 7.7317415565244785 Ga
atom 3.1834627836984173 3.7110618511925870 7.8241695567479477 Ga
atom 3.2281758242109881 3.6909160183949794 2.5939720645463273 Ga
atom 4.7956476944760444 0.8835206331204664 12.9668676843171973 Ga
atom 4.7649868530769615 0.9383462881905523 7.7401324733924115 Ga
atom 4.8264171051060769 0.9153516897601071 2.6374906930705859 Ga
atom 15.9833859592795537 3.7623283345382554 13.0200801116278448 Ga
atom 15.9898962477343929 3.7222679716827658 7.7853241696694209 Ga
atom 0.0622625745318357 3.7365487239683461 2.4850599559908586 Ga
atom 1.5508955191501739 0.9419978072492815 12.9113573792336460 Ga
atom 1.6504602965671353 1.0107099375170900 7.7705904020981089 Ga
atom 1.5885123100973497 0.9169917063218882 2.5995821864274062 Ga
atom 6.3308433341472279 3.7321055427892289 2.5242155305485667 Ga
atom 7.9610270924973605 0.9850769398518999 13.0364029725913753 Ga
atom 8.0694537068653425 0.9081669221672237 7.8314366436410578 Ga
atom 7.9454212954371162 0.9198545499579089 2.6480378426959001 Ga
atom 15.9987658070209697 9.2611890038245406 13.0450450823327273 Ga
atom 0.0688566404999917 9.2141923354910986 7.8712810802962165 Ga
atom 0.0383127458769517 9.2825772269297353 2.6061736315947410 Ga
atom 1.5495245002970111 6.4909618897285810 13.0236149253900653 Ga
atom 1.5691947452338963 6.5099323127509967 7.8466010355896803 Ga
atom 1.6193339649742944 6.4561180220040733 2.6326229739879543 Ga
atom 3.2342719360030951 3.6703529926797045 12.9635649514686957 Ga
atom 11.1791062589282255 11.9621952200489812 2.6150174324028996 Ga
atom 12.8419336772811583 9.2406304623565916 13.0835323745676995 Ga
atom 12.8956189118513773 9.2550368361137849 7.8652030955326628 Ga
atom 12.7599273774908912 9.2108571562508406 2.5706986004418431 Ga
atom 14.3823750146243565 6.4477015094544461 13.0808644196850707 Ga
atom 14.4342340108179137 6.4141026032550084 7.7479127861023187 Ga
atom 14.3560373643681682 6.3949874191933072 2.6586638549418660 Ga
atom 6.4903322946212594 14.8732228881383630 12.9949512822892981 Ga
atom 6.4359386358721382 14.8578905282811018 7.9132421739474976 Ga
atom 6.3541551208229219 14.8149129859480446 2.5564539992260329 Ga
atom 7.9720359057874859 11.9409805070198569 13.0253481682577181 Ga
atom 8.0241097740624916 12.0434176889450590 7.7931153014150780 Ga
atom 12.7419343801320775 14.7736582395723346 12.9950554074260936 Ga
atom 12.8427180129316199 14.7866567259426116 7.8185243052867301 Ga
atom 12.7847492600157526 14.7027960659151802 2.6540049813311661 Ga
atom 14.4202753978009213 12.0434903563497375 12.9971183812286917 Ga
atom 14.4197449607431576 12.0045450942563185 7.7956582077765004 Ga
atom 14.3357620328895639 11.9571837939787713 2.6264838943435973 Ga
atom 9.6225207734779392 14.7592108677867522 13.0604058458125731 Ga
atom 9.6255449082521292 14.7506096927129438 7.8204106132469722 Ga
atom 9.5084761455697748 14.8160068748668632 2.6099933454993889 Ga
atom 11.1314125300372417 11.9792552084968591 13.0331653076089040 Ga
atom 11.2316766110630066 11.9268399138155203 7.7795632189492450 Ga
atom 14.4438333114244557 0.9456881662784156 7.7600085342894065 Ga
atom 14.4484861528776918 0.8646589989739142 2.6428974658243010 Ga
atom 3.1444456435571171 14.8244673939668452 13.1008995228257259 Ga
atom 3.1738004625059260 14.8303145962065059 7.7815774764323766 Ga
atom 3.2028657028524430 14.6999038922508376 2.5627417501028043 Ga
atom 4.7501483547974184 12.0223395271266167 12.9754067992950546 Ga
atom 4.8294113128384684 12.0723209042412449 7.8354592169659174 Ga
atom 4.8222164651479993 12.0237819155838288 2.5309628247001918 Ga
atom 6.3579250379800341 9.2632879186042878 13.1284513088003951 Ga
atom 6.4100019116980116 9.2036653844773060 7.8400959248351922 Ga
atom 6.3764529244524439 9.2943021754004178 2.5543901888697715 Ga
atom 7.9303026833559827 12.0785899143816344 2.6153007435354638 Ga
atom 9.5780921346179149 9.2494412719878305 13.0297858521366141 Ga
atom 9.6060063467416725 9.2234210270372152 7.8561958018617357 Ga
atom 9.6098786184011438 9.3182124131130930 2.6079444449689286 Ga
atom 11.1642374861564928 6.5021925046478906 13.0779202196863622 Ga
atom 11.1650925296559649 6.5029564031464959 7.8396341056534320 Ga
atom 11.1985271406408895 6.4495048439392120 2.6308234050025958 Ga
atom 12.8078437435978376 3.6841235930468104 12.9140959585801571 Ga
atom 12.8388693918514285 3.6874304544116199 7.8769486840745078 Ga
atom 12.8017618187512827 3.6422235277798354 2.6587052865893819 Ga
atom 14.4057428946099932 0.9305920866285778 13.0269093078093086 Ga
atom 6.4032742298016085 7.3397875492827325 5.1182261608487032 Ga
atom 8.0435730124046181 4.6088943012007881 0.0321968032322949 Ga
atom 7.9736566238686892 4.6247045880987043 10.3711593277775034 Ga
atom 7.9887067202543518 4.6012636715677431 5.1709538798975334 Ga
atom 9.5344274761426409 1.8250377367924469 15.5618392187144394 Ga
atom 9.6932700000890417 1.9068187760304742 10.4397870854617523 Ga
atom 9.5862485338479235 1.8240524274060583 5.2001230686324682 Ga
atom 15.9407899895403755 12.9551626654014029 0.0081290881228316 Ga
atom 15.9979072779882650 12.9322752436968003 10.3958268184982447 Ga
atom 0.0437325669482379 12.9396220369525672 5.1461528420612153 Ga
atom 1.5624125834523721 10.2146798651233865 15.5832161520917243 Ga
atom 1.6336083401799921 10.1457393962470146 10.4923909777373030 Ga
atom 1.5833781591157148 15.7117868426510476 0.0295371897981554 Ga
atom 1.5935845164213540 15.6452175739678374 10.3862983411459329 Ga
atom 1.6001772268969274 15.6816516189117543 5.1557488344537452 Ga
atom 3.1571382653394982 13.0353191839972062 0.0040881917195048 Ga
atom 3.2100837534064035 12.9881258658152934 10.4008804495365101 Ga
atom 3.2007396895033122 12.9081356592537873 5.2059360987781576 Ga
atom 4.6520881082242322 10.1850357691267508 15.5592775240711241 Ga
atom 4.8202126918190329 10.2337261712926839 10.3985029529219002 Ga
atom 4.8482995911863505 10.1746334285003677 5.1683827024797413 Ga
atom 6.4222077703189964 7.3372270602096386 15.6166928107953797 Ga
atom 6.4319664034487483 7.4248257322081388 10.4539571266814573 Ga
atom 0.0362558525113097 7.4223069096978600 10.4314893504231314 Ga
atom 15.9745834842055974 7.3666369709359492 5.2005553785925374 Ga
atom 1.6104666138995327 4.6979811267834091 15.5629661901729115 Ga
atom 1.6074002505869660 4.6415829454697679 10.3917569219903196 Ga
atom 1.5166118719771513 4.6865195806300539 5.3016683996541438 Ga
atom 3.1547114706130532 1.8493357319712029 15.5771720140937191 Ga
atom 3.2062102897145972 1.8662316336030664 10.3665948277562432 Ga
atom 3.1994199181607077 1.9028719073262064 5.1347005547490072 Ga
atom 0.0404619576815178 1.8437846713264539 0.0115825110341854 Ga
atom 0.0303794812519037 1.8194740230830277 10.4044304026021166 Ga
atom 15.9386928515544017 1.8899349177264793 5.1713285976923045 Ga
atom 1.6478082164436045 10.1519520027063503 5.2615775121549326 Ga
atom 3.2015432105441466 7.4725401472590454 0.0070121824564569 Ga
atom 3.2439455125776662 7.3977098994598984 10.4730979134375985 Ga
atom 3.2551675341826258 7.4191433418331219 5.1994800957225626 Ga
atom 4.7536840713836064 4.6375211434851833 15.5605109031321938 Ga
atom 4.8783715052655792 4.6784684529953333 10.3989890988545994 Ga
atom 4.7448510842245950 4.6036095186467074 5.2288453737436749 Ga
atom 6.3828937362325453 1.8443399469566277 0.0124575551319133 Ga
atom 6.5083964001401293 1.8419407070783629 10.3873305667549829 Ga
atom 6.3604845598377269 1.8763616039951487 5.1754661063270131 Ga
atom 0.0082266663638011 7.4080493720201712 0.1498425504711478 Ga
atom 14.3377967715306855 10.1150193468794942 5.1859314277652313 Ga
atom 8.0135910862789963 15.6861563136102333 15.6136172525176686 Ga
atom 8.0601270900308872 15.7107167960900682 10.3714295660550420 Ga
atom 7.9852185889389755 15.7394640513010060 5.1598000846745595 Ga
atom 9.5404043055192620 12.8988350776192622 0.0732021789980215 Ga
atom 9.6923584083373679 12.8656526608352930 10.4292184250577975 Ga
atom 9.6850167415392008 12.9353518519562201 5.1490992399723785 Ga
atom 11.1454469330334209 10.2047927481673515 15.5891977901157617 Ga
atom 11.2533474095555128 10.1215710946439543 10.4437726910810653 Ga
atom 11.2957048411957590 10.1459032058857854 5.2570032374521318 Ga
atom 12.8656346755910160 7.3223035050802752 0.0352696272690542 Ga
atom 12.8533141550672152 7.3685238003049500 10.4775566152559687 Ga
atom 14.3974796297378500 15.7715471488060128 15.5390595533299027 Ga
atom 14.4580483195747878 15.7230570946883965 10.4023484536046293 Ga
atom 14.4689447705442671 15.7297660246739834 5.2506120902153555 Ga
atom 11.2803181600569964 15.7110141482849492 0.0570496592979662 Ga
atom 11.2323093869330872 15.7599639858589491 10.3740780703552300 Ga
atom 11.2161016071568707 15.6921874878879137 5.1982874357131594 Ga
atom 12.7932760944261936 12.8873021109512074 15.5877964325363738 Ga
atom 12.7884590976791142 12.9747069736279439 10.4010126913013128 Ga
atom 12.8255564223223502 12.8804961152681479 5.2264389165904204 Ga
atom 14.4831994047017272 10.1482060833020657 0.0408482146776359 Ga
atom 14.4106424284272414 10.3292021230609077 10.3846325386595648 Ga
atom 8.0082417099370531 10.1725329194153691 10.4928067910872613 Ga
atom 8.0266595756292602 10.1186292007944765 5.3122897291839815 Ga
atom 9.6424225300829729 7.3401033948058378 15.5986368916311768 Ga
atom 9.6168501733523186 7.3682841905996659 10.5140158185690531 Ga
atom 9.6546698743026553 7.3911987605435874 5.2137237838436628 Ga
atom 11.2263380780690323 4.5548031709001719 15.5995498790072169 Ga
atom 11.2894403035436568 4.7252058714554215 10.5020430487496164 Ga
atom 11.2111727602503279 4.6131086805026698 5.1508591621752675 Ga
atom 12.7540535703334044 1.9505613469809553 15.5837063697136120 Ga
atom 12.8803345784449501 1.7980907452599926 10.3914462693876750 Ga
atom 12.8231277434234130 1.8561693129020664 5.2516785276808413 Ga
atom 12.8096821515391657 7.2762970927184796 5.2336163566783434 Ga
atom 14.4456670285920552 4.5868456775713433 0.0393920765890802 Ga
atom 14.5027448140623161 4.6019132345997562 10.4262642549723132 Ga
atom 14.3756393262292352 4.5520023291761547 5.1606086706174672 Ga
atom 4.8396027002874566 15.7942388269894423 15.5491730662122265 Ga
atom 4.7853265788831933 15.7647945723839307 10.4058705118176817 Ga
atom 8.0114890412031912 10.1389082386635785 0.0834997156543780 Ga
atom 6.4238711066794449 13.0199409552505969 5.2070324120141542 Ga
atom 6.4383403911354451 12.9425947139228228 10.4478646567353426 Ga
atom 6.3565687918319709 12.9991681863542770 15.5526968517909516 Ga
atom 4.7622256624530381 15.7320140705928502 5.2864135774293022 Ga
atom 3.2153387633162946 9.2212117094864077 9.7466331374024886 N
atom 3.2032934591861890 9.2959067261784458 14.9718172462631252 N
atom 1.6566297594537864 11.9406600127067577 4.6059519436153344 N
atom 1.5513299073548010 12.0477707388686373 9.7636981263448011 N
atom 1.5601390886189337 12.0174802003519670 14.9546599719888977 N
atom 0.0092298236779022 14.8336143789712978 4.6382245991091926 N
atom 3.1991209093700759 9.3025632565727179 4.6100804939486615 N
atom 4.7212581418204120 6.4520488660546205 14.9331671452668218 N
atom 4.8073844609123544 6.5497089866373939 9.7998821206727182 N
atom 4.8103229047575145 6.4486928881753682 4.5486058073034012 N
atom 6.3847942012908252 3.7765474609820280 14.9328835091834353 N
atom 6.5316299762228658 3.6856878612312087 9.6636524966700215 N
atom 8.0059542880398489 6.4089654624482639 14.9430197505744662 N
atom 7.9458125919639713 6.5121624048841706 9.7838893657395456 N
atom 8.1367226551666185 6.4762616527091197 4.4499477505486524 N
atom 9.5942221383433850 3.6794955676362435 14.9489092861039321 N
atom 9.5970436031829198 3.7682747018502192 9.6998812025006842 N
atom 9.6083100697131396 3.6864144247499757 4.5747578750155578 N
atom 11.1563651237889196 0.9598411754245694 14.9643128688270863 N
atom 11.2663263691878672 0.9036373474886574 9.7820891633375613 N
atom 11.1839542885330516 0.9425319079158690 4.6587950894628554 N
atom 15.9257734969122584 14.7915063210116831 14.9823943222324072 N
atom 16.0037693919899837 14.7587718924135185 9.6628944300890058 N
atom 3.2530949242861418 3.7162108332539794 9.8268577542983149 N
atom 3.2115506728700405 3.6838091262922994 4.6004872611847789 N
atom 4.7671490105328349 0.9290285421474447 14.8879796484443023 N
atom 4.8487346071997326 0.9835936827626678 9.7648865999067826 N
atom 4.7660785639137204 0.9757215605688175 4.4865358150312433 N
atom 0.0321422009096276 3.7087563707163596 14.9306338585839988 N
atom 0.0333700061362055 3.6461671336635368 9.7445048793967182 N
atom 0.0243413154265399 3.7362479499119741 4.5291648792106560 N
atom 1.5847698525195546 0.8975451132762091 14.8797163860192558 N
atom 1.5771149780612110 0.8355897114528461 9.7243101389341593 N
atom 1.5694851821706379 0.9708127069783273 4.5289508084692693 N
atom 6.3827706945073643 3.7465414848467944 4.5082680179632328 N
atom 7.9394576416180671 0.9443104013854751 14.9971000907507914 N
atom 8.1381353063036794 0.8821401256205978 9.7861429656210586 N
atom 7.9725402571842023 0.8862736725318926 4.5628173122376330 N
atom 0.0236151963587308 9.2425388465826579 15.0648567688971458 N
atom 0.0421498810543321 9.3365069896426416 9.7423722955360041 N
atom 15.9983855439014864 9.2512261490703356 4.6483263677081332 N
atom 1.5829348085766626 6.5494275331666429 14.9621090041528344 N
atom 1.5804924037384127 6.5207504716826659 9.7769575602498264 N
atom 1.6394813966335493 6.5195319794787716 4.5320041666049127 N
atom 3.2353556790405555 3.7277299452370158 14.9565230103284854 N
atom 11.2282709770413813 11.9876671558305130 4.5514123974317302 N
atom 12.8271045604193930 9.2709626848958369 15.1057450769975379 N
atom 12.8647439591944313 9.1567075867482988 9.8896644364615298 N
atom 12.7750905141247255 9.1256793801204488 4.5266868981170045 N
atom 14.4945120985896114 6.3780242683785335 14.9977464912040652 N
atom 14.5190607959848084 6.3734879060209897 9.7436377379328594 N
atom 14.3987985532611091 6.3941713681089807 4.6419286952800745 N
atom 6.4203031845235081 14.9164296336363247 14.9458677849898862 N
atom 6.4793636284844673 14.8002442323480494 9.8348387619404996 N
atom 6.3271817548983922 14.9113150617206323 4.6008340204255900 N
atom 8.0004494964880823 12.0569751951370776 14.9589599389733259 N
atom 7.9399034798392192 12.0063247051331796 9.8318792058317914 N
atom 12.7560105705879856 14.6955297742980147 15.0150227500070557 N
atom 12.7547566907080938 14.7794518853333781 9.6812813765403511 N
atom 12.8476580686531481 14.8048944988664299 4.6423667504572448 N
atom 14.4073376879401529 12.0003243048254511 14.9489413134134086 N
atom 14.4656300798478217 12.1350531713214185 9.7757927874573802 N
atom 14.3514032197806127 12.0414293135648567 4.5462368741320125 N
atom 9.6229560856444341 14.7352307298948269 15.0649422735629273 N
atom 9.6659525653044831 14.6613093749897097 9.7629771856720744 N
atom 9.5808497722342594 14.7739806921616079 4.5659196593146563 N
atom 11.1540118501332124 12.0150808190559246 15.0936729039038919 N
atom 11.2869357832675572 11.8842488215101092 9.7604403792250771 N
atom 14.3686075846529864 0.9342137878603269 9.7486453618697446 N
atom 14.4457220953609529 0.9159643506304453 4.5430453115164431 N
atom 3.1807901697166754 14.7636602941681740 15.0470398914772900 N
atom 3.2744495086857568 14.7901896591967805 9.6936041234089849 N
atom 3.2156296743545658 14.8055300427076926 4.5928092041354844 N
atom 4.7657264559272230 12.0579162460006923 14.9375754752777485 N
atom 4.8676168835775266 12.0304055767198186 9.7375792067878706 N
atom 4.8937835348092911 12.0456273646271228 4.5230291038880823 N
atom 6.3691409597135538 9.3035758271522884 15.0109617184350679 N
atom 6.4538663818921096 9.2837753988915654 9.7625027407249068 N
atom 6.4407845200786369 9.2033835670021951 4.6412425997246967 N
atom 8.0491274983369028 12.0220446949021671 4.5337910486190438 N
atom 9.5894487388002005 9.1539752606308795 14.9668136778240246 N
atom 9.5874757377441888 9.2201534551879902 9.8113798458055790 N
atom 9.5888283992383379 9.1648211519263683 4.6086481354605864 N
atom 11.2526495362641885 6.4219705267635865 15.0158066513734312 N
atom 11.3063461586768863 6.5506619231539451 9.8100448584516915 N
atom 11.2111709794250167 6.4959798618304987 4.5525085699557994 N
atom 12.8540629324085831 3.7330037701311833 14.9325985036844440 N
atom 12.8707528623651530 3.7201702803296861 9.9338809710688665 N
atom 12.7867046499545101 3.6526645905186577 4.5223312272349334 N
atom 14.4584511589571303 0.9304991289613189 14.9907464176603700 N
atom 6.4216564781454526 7.4760108039895696 1.9001167950397801 N
atom 8.0644726019843631 4.6313212984239644 12.3493202365460970 N
atom 7.9199639524456309 4.6344191322238446 7.0853717602192328 N
atom 7.9842414090426956 4.6230436050445975 2.0011382245002900 N
atom 9.5455438264129953 1.7846417346628400 12.3583439889757152 N
atom 9.6532543547582232 1.8994448024576658 7.1841743033847987 N
atom 9.5223913993550156 1.8379204405225351 1.9148854743592987 N
atom 0.0788199647130955 12.9244646312679077 12.3185633532302692 N
atom 0.0460208708274282 12.8694987620873338 7.1255198079908242 N
atom 15.9685642870576157 12.9646511358727050 1.9411075493632155 N
atom 1.6106289079476483 10.1136688172301827 12.3619297859409052 N
atom 1.6348568321572523 10.1464101709514072 7.2358013792123757 N
atom 1.6197001474827279 15.6808345749864770 12.3767322739752696 N
atom 1.6041190256958875 15.7138781029370058 7.1278930768890820 N
atom 1.6240618217113525 15.5932501335237337 1.8827037062331415 N
atom 3.2241275345358900 13.0096883129758094 12.3322132869203998 N
atom 3.2694995942682010 12.8990211566580513 7.1272746635115141 N
atom 3.0844557217405661 12.8016762143881895 1.9830161480951849 N
atom 4.8748600753929905 10.2085004899430967 12.4314312805933902 N
atom 4.8907732762087299 10.2938038797642601 7.1510255319050922 N
atom 4.7715843672300258 10.1392632067996438 1.9753915787373475 N
atom 6.3259252041717406 7.4356004172224859 12.3898303416929334 N
atom 6.4129746499833180 7.5069495267450330 7.0295786103575848 N
atom 0.0118966522139500 7.4073457373099822 7.1331640684344668 N
atom 16.0056285045140285 7.3789730932474740 2.1271813556900399 N
atom 1.5260351524637026 4.6149097931174170 12.4020435882395965 N
atom 1.5670934298812838 4.6717328649643184 7.2197752502121171 N
atom 1.5795187066831118 4.6092345828966401 1.9743921863358169 N
atom 3.2125993331922378 1.8507301430704766 12.3146214245536445 N
atom 3.1813312341172186 1.9055443121820248 7.1371201496987986 N
atom 3.1854741789099008 1.8307642960536012 1.9252362653775266 N
atom 15.8961445371623391 1.8924113108809653 12.4004173625621394 N
atom 16.0040769716002558 1.8724368801440614 7.0649985232409955 N
atom 0.0323630428279625 1.8346709022511691 1.9420454589281175 N
atom 1.5860657849333515 10.1810576841700779 1.9243128184935223 N
atom 3.1606139794924766 7.3127524333673417 12.4418425042940122 N
atom 3.2068171615045742 7.4485316073789072 7.1675923527005692 N
atom 3.2893159039137281 7.4587394783798358 1.9214060098279695 N
atom 4.8349529632348904 4.6265533898706890 12.3492554485297905 N
atom 4.7559111280528272 4.6706780597193198 7.1330536057492084 N
atom 4.7326275797643218 4.6489489386110598 1.9174297409089514 N
atom 6.3963023832102426 1.8791587542444708 12.3745991343656563 N
atom 6.3999264242973819 1.8074175420964529 7.1598201786033853 N
atom 6.4056252738292914 1.8108757033790064 1.9309843319982736 N
atom 16.0065249922651915 7.3640235849723226 12.4188651664359515 N
atom 14.4058276559508904 10.1387318591999005 1.9873385037147369 N
atom 8.1203407611713097 15.6841613765730870 12.3510084834102596 N
atom 8.0099109842515848 15.7338381785219301 7.2042003736969544 N
atom 7.9864985452965289 15.6959112530655727 1.9087727932561940 N
atom 9.5875478370020062 12.8912733262107171 12.3827008480041680 N
atom 9.6895380512698868 12.9127017373974198 7.1943271435466105 N
atom 9.5202499455857730 13.0227970648258022 1.9487539311395321 N
atom 11.1680755281828823 10.1009495709291297 12.3805556082276684 N
atom 11.2567331824660712 10.1264559063064326 7.1813923337928411 N
atom 11.1563911995983194 10.0946159170701559 1.9430022808870295 N
atom 12.8377984616305607 7.4094350768787702 12.4820597865107299 N
atom 12.7859663786327769 7.3987153567833115 7.2624623609368850 N
atom 14.3823774162506481 15.6690809454307871 12.3387119366651064 N
atom 14.3971193564910251 15.7066489225379424 7.2419076704573158 N
atom 14.3819646602972604 15.7035151221366132 1.9314445585286986 N
atom 11.1707388281430617 15.6231434660415527 12.3857397512914549 N
atom 11.1803544058092204 15.7790551980498073 7.1270629415011735 N
atom 11.1720690071108404 15.6725435962301400 1.9959425435364961 N
atom 12.7489526926177685 12.9495150893476403 12.3515085525530388 N
atom 12.8154284454609826 12.8466531740786110 7.2212455727892184 N
atom 12.8149906013760386 12.9149039365171028 1.9802602452308358 N
atom 14.4211362229752300 10.1696850606861755 12.3131537854611519 N
atom 14.4413490099282527 10.1277209370746473 7.1963918945125949 N
atom 7.9922078013077700 10.1242924620432717 7.1814056235763006 N
atom 7.9380693977311738 10.1717443494440420 1.9813161821989904 N
atom 9.6123487924747320 7.3696536474971461 12.3618669963458636 N
atom 9.5621053462013705 7.3947857155928727 7.1468684636731918 N
atom 9.6313162160271908 7.4336093536895875 1.9192688893570147 N
atom 11.2474773019014087 4.6469778031532680 12.3407006368311869 N
atom 11.1490594536751892 4.5098514886550563 7.1246664886435465 N
atom 11.2147755198563086 4.6040539889193726 1.9877630851969057 N
atom 12.7488702723226019 1.8345945234683858 12.4034275189694476 N
atom 12.7314595635678103 1.8558600482212104 7.1862828034123067 N
atom 12.7842696303593115 1.8464861960189456 1.9335211238492389 N
atom 12.7110604137136711 7.3331169630185320 1.8227612566310540 N
atom 14.3520311598902719 4.6393555166896023 12.3113173202604607 N
atom 14.3723398335237107 4.5711786456391676 7.1481867820231670 N
atom 14.3623664051610813 4.6290853622265784 1.9519352455018979 N
atom 4.8497416114446432 15.7494140851252293 12.3517071963045577 N
atom 4.8034737476869056 15.6141317215923578 7.2063514840867784 N
atom 4.7677627338320496 15.6950911339177424 1.9663571826915911 N
atom 6.4290305201392606 12.8811824267399651 12.4097509558429238 N
atom 6.3690373302845611 13.0181557887553012 7.2139045468482239 N
atom 6.3864577485055367 12.9636019014620771 1.8913035768812017 N
atom 7.9741137475082819 10.0683550538627156 12.3305064720006552 N
