#===============================================================================
# Created using the Atomic Simulation Environment (ASE)

# Thu May 11 08:59:49 2023

#=======================================================
lattice_vector 16.0100851999999989 0.0000000000000000 0.0000000000000000 
lattice_vector 0.0000000000000000 16.6381685999439100 0.0000000000000000 
lattice_vector 0.0000000000000000 0.0000000000000000 15.6179127599999905 
atom 0.0938746158311117 14.8043407663641684 2.5412432453726597 Ga
atom 1.6848496780472322 11.9506791688623739 13.0777811312817711 Ga
atom 1.6831740526100312 11.8442784465039530 7.7373337838143668 Ga
atom 1.5477454011236123 11.9964123899909190 2.6059780805525965 Ga
atom 3.1218830228805783 9.2408052327488086 13.0532723150935848 Ga
atom 3.2068028850620043 9.1396798401182231 7.8099959745664984 Ga
atom 3.1380205529166814 9.2985961895304197 2.7231444145938206 Ga
atom 4.6920242680581952 6.2905430168161498 12.9316598989343383 Ga
atom 4.7136670273635550 6.4889072926737068 7.9323618550082049 Ga
atom 4.7710636328306375 6.5563438942496095 2.5629644198056685 Ga
atom 6.4301559629226350 3.8183871925674668 13.0942775387669226 Ga
atom 6.4175660899943887 3.7727913284392707 7.7289892978917285 Ga
atom 7.9713269900137922 6.5639870093480583 12.8259450906065542 Ga
atom 8.0208662856346660 6.5115241145318343 7.8018372989873228 Ga
atom 7.9736785521367981 6.3637068146113833 2.5909358725663365 Ga
atom 9.6370168933695286 3.6153466823307774 12.8918427135022426 Ga
atom 9.7089868702045070 3.6554631185545889 7.8005246664226675 Ga
atom 9.6148278185277896 3.7438570543602960 2.5397220755844736 Ga
atom 11.2254786258133219 0.8836047634165256 12.8532139819092048 Ga
atom 11.2088736016379169 0.8451934882030885 7.8359021899711196 Ga
atom 11.1870283645280519 0.8668191251776209 2.6339715398477184 Ga
atom 0.0429918654399822 14.7703360320173402 13.0614649316532105 Ga
atom 0.0118998289102398 14.7031184643710056 7.9027599792680494 Ga
atom 3.2201406567482556 3.7156555862016902 7.7957286065332747 Ga
atom 3.1397957883368335 3.7568456574715774 2.7262605414025933 Ga
atom 4.9027082479336901 1.0231636525691072 12.9706977516084336 Ga
atom 4.9308865660680850 0.9598372726354828 7.8568146233275566 Ga
atom 4.7123554411470696 0.9112734546691899 2.5563980964737851 Ga
atom 16.0048282437891984 3.6215601993250348 13.0011966812683397 Ga
atom 15.9592279561071653 3.6743382016176662 7.8010856416394274 Ga
atom 15.9954240763842730 3.7994212738551782 2.7716512877789126 Ga
atom 1.4031356595761986 0.9307291903450889 13.0819158161171085 Ga
atom 1.6426194693807727 0.9088501070077092 7.6680109060179529 Ga
atom 1.5771651236491580 0.9840576182523957 2.6045986493243594 Ga
atom 6.3376866787501616 3.6285906325103539 2.7505125280599017 Ga
atom 7.9827799213137807 0.8586257025605543 12.9405522099265990 Ga
atom 7.9441753840649714 0.9364675848999351 7.7387917016885570 Ga
atom 8.0297705410595483 0.8650880709120431 2.5719494672584080 Ga
atom 15.9574469148105287 9.0042614150417961 13.0418037770418795 Ga
atom 0.1029464482367771 9.1455754918444878 8.0111315664265987 Ga
atom 15.9421175546371234 9.2209393054089066 2.7788734859354833 Ga
atom 1.5714577349950165 6.4344247784569379 13.1264922524800731 Ga
atom 1.4245755972985759 6.4479602347175256 7.7944795738145727 Ga
atom 1.6816042931122632 6.4964021178585041 2.5444372944500557 Ga
atom 3.1982191132984137 3.5070988164604162 13.0080217360744275 Ga
atom 11.1411913897212251 11.9901535880880630 2.6349517669390718 Ga
atom 12.7030111439920130 9.2373714863336609 13.0729247855595929 Ga
atom 12.7002264247912606 9.2753380144552366 7.8498686529449309 Ga
atom 12.8249467050317509 9.3099916968179848 2.7674002168306790 Ga
atom 14.4419785293426806 6.3548469174973095 13.0067637072777362 Ga
atom 14.2794696262555370 6.5936800364926347 7.8083842344215997 Ga
atom 14.5930575688041646 6.4281253037063841 2.6018771019145635 Ga
atom 6.4331235832883413 14.7328785241675373 13.0594549323169975 Ga
atom 6.4295407726221958 14.7380785393213003 7.8315751976203538 Ga
atom 6.3413752527643945 14.8150529151678310 2.5298284571575156 Ga
atom 7.9626259003192388 11.9473624132420699 13.2127857467828971 Ga
atom 8.0647176111669729 12.0465769350133911 7.8155531014626920 Ga
atom 12.8209001320015368 14.8287824833884869 12.8504807994414598 Ga
atom 12.9914146502744874 14.9029559951892345 7.7594192597541021 Ga
atom 12.8795319134204647 14.7761464449295623 2.6183375537038338 Ga
atom 14.3778036163019447 11.9561447633762636 12.9582431106981399 Ga
atom 14.6904810134218469 12.1546155095797257 7.6989074734897445 Ga
atom 14.3702968369800654 12.0038629226267251 2.6223617510851525 Ga
atom 9.6798010668649521 14.9242335484606237 12.9802682508755609 Ga
atom 9.5106599944373542 14.8497744379612939 7.8085560757796610 Ga
atom 9.5047096710827379 14.6453125100976216 2.5917857264059130 Ga
atom 11.2608276062778714 11.9412043970636432 13.0078264338147012 Ga
atom 11.2934855283746849 12.1017280842698955 7.6864071358373884 Ga
atom 14.3116232209667587 0.9125519995860336 7.7327972762585553 Ga
atom 14.3051761423527637 0.8310173574891834 2.5861043598867557 Ga
atom 3.2631747152312944 14.8497818100990351 13.0181435767886100 Ga
atom 3.1138501655927691 14.7405287882650899 7.8248943869611125 Ga
atom 3.1914274320688034 14.8248973750246549 2.5969092392695918 Ga
atom 4.7789503605204500 12.0501000409796983 12.9272955746098859 Ga
atom 4.7703639447649353 12.0175752037461123 7.8901319501403933 Ga
atom 4.7417861887347303 12.0110844231170351 2.5728426387093575 Ga
atom 6.3201796180279333 9.1323228548245083 13.1240021931124105 Ga
atom 6.4289077389053713 9.3043087714050525 7.8256478429442131 Ga
atom 6.2994587709682159 9.2322644416101287 2.5207493814326956 Ga
atom 7.9064177694488720 11.9372739214855201 2.5733977836145066 Ga
atom 9.5650960855510085 9.2342626975913760 13.0393569044006110 Ga
atom 9.6568752971151461 9.3745216760005121 7.8005404021504026 Ga
atom 9.5623164844647004 9.1451048993040409 2.6903810255982710 Ga
atom 11.1438426310142731 6.3683690431266058 13.0326051044200888 Ga
atom 11.1952183471219620 6.5073244433034443 7.7915369081135237 Ga
atom 11.2340945854507144 6.4722403517683329 2.3872746500860513 Ga
atom 12.8622325783625957 3.5420908439025767 12.9810569499461970 Ga
atom 12.7565080630852083 3.7696827148431624 7.7795132177536219 Ga
atom 12.7541045402255637 3.7518076746452844 2.6189538069714806 Ga
atom 14.3820216110268362 0.9028680873450454 13.0130710076206704 Ga
atom 6.5059131591574104 7.5631791342776564 5.2872410105625276 Ga
atom 7.8909793849881007 4.6239732578983697 15.5004165767476483 Ga
atom 7.8718807484545188 4.7128098575451549 10.3907565851381545 Ga
atom 8.0678484241661987 4.6450370905291916 5.1432335393923383 Ga
atom 9.6885049853891445 1.9041506413962330 15.5573378183687616 Ga
atom 9.5840136249666141 1.9245228359968005 10.2661596069852550 Ga
atom 9.5878179315366587 1.8499370124047647 5.2626023683087872 Ga
atom 15.9939077552768385 12.9360703214335668 0.0896120026578834 Ga
atom 0.0665570118825524 12.8540376888273578 10.5886919263853585 Ga
atom 15.9153169262876979 12.9573512139313216 5.0939420932025259 Ga
atom 1.6546659873475078 10.0721162629735961 15.6112941941175549 Ga
atom 1.6371711830765210 10.1396146709425565 10.4394973857182709 Ga
atom 1.5013968014559107 15.7328765664857535 0.0432439950971270 Ga
atom 1.5809586964914863 15.7261323529085164 10.6151374046125575 Ga
atom 1.6124906587867602 15.8252599199839459 5.1127171007565639 Ga
atom 3.1882268285164788 13.0048643895926137 0.0511290945037757 Ga
atom 3.1972490470068724 13.0471430063401339 10.4694697564385280 Ga
atom 3.1169945733276982 12.9881753784477585 5.1737626057637192 Ga
atom 4.7912975111681115 10.2816432751579452 15.5572679750361935 Ga
atom 4.8927447483586013 10.1978861644066630 10.5328444170509830 Ga
atom 4.9149425910479341 10.0806312338355752 5.2573146472341454 Ga
atom 6.4489023882853598 7.3368595059229609 15.5716965810616710 Ga
atom 6.4154630317341095 7.4198160558751241 10.4070377009939126 Ga
atom 15.9182956457221376 7.4536797544052247 10.3241843696229587 Ga
atom 0.1391160850685014 7.2943104980218463 5.2863266061248462 Ga
atom 1.6223345198913541 4.5090110176100477 0.1100079078257917 Ga
atom 1.5852244987792168 4.6847117279615906 10.3839565572993191 Ga
atom 1.5719896208406119 4.5044464946193949 5.1992487953127826 Ga
atom 3.3473664751982319 1.8513008422160571 0.1107819224461669 Ga
atom 3.1778245973569059 1.8859291423691094 10.4162223879206994 Ga
atom 3.2754642069296520 1.8786386212485462 5.2406762582570972 Ga
atom 0.0380377441248643 1.9015814351784754 0.1047089657073562 Ga
atom 0.0499570604946394 1.7500941721885981 10.2531639313517644 Ga
atom 0.0251822777165034 1.7820818028414449 5.1434745368777843 Ga
atom 1.5593773670305020 10.2557834774906809 5.2057349315224029 Ga
atom 3.1654224109528446 7.4541298525751900 0.1448119650464391 Ga
atom 3.1576797142862785 7.4418213192387501 10.4528963351940440 Ga
atom 3.3303004640848357 7.4405636752648387 5.1548165518652267 Ga
atom 4.8613050344536459 4.7387832535968277 0.0415384571889824 Ga
atom 4.7048050546305209 4.6403164787405835 10.3393758666259767 Ga
atom 4.7883317101337335 4.7158876376935188 5.2617876832385981 Ga
atom 6.4209328924054576 1.8807129575326513 0.0748885696274941 Ga
atom 6.3773246936368517 1.9215428486037627 10.4045870081925980 Ga
atom 6.4589968460053626 1.8320719612252356 5.1682173019515574 Ga
atom 0.1265240549751558 7.1896117609893206 15.6161705764884129 Ga
atom 14.4656505093774346 10.1557589464866407 5.4141173273999179 Ga
atom 8.2113624816315944 15.7555949259484809 0.0535703812926558 Ga
atom 7.9991098212114347 15.8152861746998461 10.3586367785599833 Ga
atom 7.9420623341412240 15.7480381526142601 5.1816250366833323 Ga
atom 9.7229207749000786 13.0105001604028789 15.5683441531267626 Ga
atom 9.6431952894785073 12.8966910503426089 10.5595098242474172 Ga
atom 9.5631221964903386 12.9872548463927657 5.1076211689821980 Ga
atom 11.2193196453873050 10.1710816276082614 0.0424159432763742 Ga
atom 11.1726659512379864 10.2872343274232030 10.3408742995292595 Ga
atom 11.1514404110893501 10.2286423502200545 5.0530808999723860 Ga
atom 12.7445477427263558 7.4554010760740841 15.5739416762620486 Ga
atom 12.7727102707256215 7.3069764782036168 10.5273577916791474 Ga
atom 14.3581583986104206 15.8211153393907829 15.4521806720966843 Ga
atom 14.3999813485922967 15.7119493412061235 10.4106846290644057 Ga
atom 14.4757790661865275 15.7467697014856487 5.1177274773683763 Ga
atom 11.2297317498213687 15.6670517719356148 0.0714395581208550 Ga
atom 11.1128565503010588 15.6088807938902558 10.3965843834275304 Ga
atom 11.1026319851714046 15.6428467485114897 5.1664098444666964 Ga
atom 12.7733822227594640 13.1160288730522847 0.0297951292102257 Ga
atom 12.8809893163488898 13.0579832191765934 10.4031975070686595 Ga
atom 12.7342587967641325 12.8958219463721058 5.1574553732854937 Ga
atom 14.4374654607623629 10.1942761905150103 0.0142595528198399 Ga
atom 14.3886450771844316 10.1766504431031120 10.4066559658869586 Ga
atom 7.9821021607243283 10.1555293027466913 10.4660451312322120 Ga
atom 8.0284553889872328 10.1176346981595700 5.1935016090808057 Ga
atom 9.5914287433592751 7.3933552035835302 0.0409683776430435 Ga
atom 9.7408165729858727 7.2714873021302866 10.4797544466992836 Ga
atom 9.6080462838449723 7.4105132425637104 5.1811568471806373 Ga
atom 11.1754772624289735 4.5616680118102115 15.5224892449770415 Ga
atom 11.1926934754520300 4.6319789149393698 10.4243996409891420 Ga
atom 11.1397609342447126 4.7625206953348105 5.1340399548608460 Ga
atom 12.8607827443841440 1.8261248048038687 15.5718660481346571 Ga
atom 12.9134205531064339 1.9233734847686972 10.3735900033221178 Ga
atom 12.6893099224319705 1.8034665432604939 5.1470368396860859 Ga
atom 12.8202884662526699 7.4455502897127106 5.1626620264474106 Ga
atom 14.3666122365317737 4.6659913556092079 15.5909863256700039 Ga
atom 14.4448363217317137 4.6349647494949799 10.4195181171095701 Ga
atom 14.4171386636074494 4.6534567891456833 5.1674705158640748 Ga
atom 4.7061276930034674 15.5993757151443173 15.5669556761435484 Ga
atom 4.8481132071467963 15.8115403098426341 10.3798995328102119 Ga
atom 8.0073978802251418 10.1165117206651995 0.1217132468204138 Ga
atom 6.4267241259953867 12.9180651347806901 5.1133059627333015 Ga
atom 6.4785895252723460 12.8173909417951180 10.2668759927900872 Ga
atom 6.4856670073381286 12.9878858061112723 15.6074300890232429 Ga
atom 4.8503121404116589 15.6989818452472427 5.1870989646466459 Ga
atom 3.2630672644636136 9.2674094514650687 9.7214471543712335 N
atom 3.2307009682022225 9.2441744107029713 14.9739985000663811 N
atom 1.6135353434071120 12.0730016769842017 4.5396324268041370 N
atom 1.5974494207559424 11.9622402705399278 9.7841059408469775 N
atom 1.5719412907455745 11.9652669928211868 15.0874272517990882 N
atom 15.9939566291380899 14.8225601003828800 4.3883543976931492 N
atom 3.2955737916687142 9.3835463816158224 4.5102552750421383 N
atom 4.8504474171944452 6.5238023544082973 15.0014175968411632 N
atom 4.6845632425961901 6.5064960971121666 9.9005946857372393 N
atom 5.0471248582701982 6.5073742107659358 4.4863278708320431 N
atom 6.1970060182062525 3.6699088662938584 14.8736757871763121 N
atom 6.4239507425718383 3.6675939098016048 9.7501561792516771 N
atom 8.0509852425631774 6.4329015838212422 14.8737378287871866 N
atom 7.9388249876197969 6.5265528450614347 9.7306949521471235 N
atom 8.1222895163428017 6.4401107039809071 4.6402779743814078 N
atom 9.5855491626322156 3.6427904574940793 15.0000595089606694 N
atom 9.6073049779283028 3.7449674272992417 9.8111810293699211 N
atom 9.5143455443821630 3.6712568072171732 4.5539186418271447 N
atom 11.3017692168639137 0.7913923169184824 14.8284644560698471 N
atom 11.0857917767260581 0.8902908524186064 9.7444676185666861 N
atom 11.1961242276417323 0.8243152757925931 4.6384647872665905 N
atom 15.9622626140929409 14.8180978132528427 14.9795171571992682 N
atom 0.1336611660991085 14.7415300933689757 9.8677681846240990 N
atom 3.0464802054067257 3.7157481472254918 9.6886825709114692 N
atom 3.1339135395625366 3.7417020568805457 4.6791257046074204 N
atom 4.8427619294946851 0.9171203466387844 14.9459637819492226 N
atom 4.7282577538684150 1.0927992104480293 9.8403408546143769 N
atom 4.7396555534456306 0.8980231229157210 4.5922623393188582 N
atom 15.9307111117211466 3.5915663051691333 14.9350950814700543 N
atom 0.0048876221860985 3.7063675531960474 9.7583962601879506 N
atom 0.0572586062435967 3.5828771865857538 4.6252926912298351 N
atom 1.5666068839999587 0.9497484581192597 15.0459117900401846 N
atom 1.6145094345418542 0.8178685330521922 9.8139879409039636 N
atom 1.6298648534023554 1.0281216452169286 4.5817458655825325 N
atom 6.4178092616492481 3.7793176658655483 4.6528539716613349 N
atom 8.0589248631195254 0.9595569196215229 14.9636099463783516 N
atom 7.8762693754177446 0.9929029279944065 9.6931868189722277 N
atom 8.1033424484406158 0.8591439467175396 4.4001889630273476 N
atom 0.0011020718953195 9.1151383029760726 14.9712931396251765 N
atom 0.0013249338147495 9.2306589200899687 9.9273618539017416 N
atom 16.0013787180118889 9.1480451524615489 4.5804124931533101 N
atom 1.6465149338743792 6.3480221854918941 15.0277403196888955 N
atom 1.5455800382282230 6.4490500564864428 9.8614372531375345 N
atom 1.7131042573039976 6.4399655329977792 4.5754130959874253 N
atom 3.1999763676746844 3.6813875852435962 14.9432783731551133 N
atom 11.0340566428723683 12.1068213197820196 4.5898323266170449 N
atom 12.8270433512301754 9.2176554349062236 14.9280579634451822 N
atom 12.7605682205577633 9.2493754768623919 9.7283019358348728 N
atom 12.8510024987925782 9.2725870231577741 4.6750865520555651 N
atom 14.4117576207044156 6.4731813344274372 14.9587562530100637 N
atom 14.2915160442628260 6.5027342310731484 9.7830588920165749 N
atom 14.4972949794507411 6.3770054671211138 4.5348792711679131 N
atom 6.4641468033273739 14.9374006730272537 15.0507667259177591 N
atom 6.4812899248981610 14.8092576072454243 9.8534520296048829 N
atom 6.5451628975841496 14.8099294060891573 4.5824682256959770 N
atom 8.0623643970791896 12.0077749459916987 15.0584430925568018 N
atom 8.1327520431642970 12.0084075205993681 9.7855417445297839 N
atom 12.8652953160940271 14.9554915804004231 14.9758585223967895 N
atom 12.9183582292180983 14.9571527877483561 9.7079736996963657 N
atom 12.8947941720136683 14.7448108413000405 4.6448849372202163 N
atom 14.3367284759323201 12.1300947628426723 15.0044142991772205 N
atom 14.4515828987357935 12.0106670449100665 9.6673178225617811 N
atom 14.3908837508452816 12.0231421794325435 4.6747313142375537 N
atom 9.7013682889236090 14.7729786038051181 14.9672224965786800 N
atom 9.5006156840545604 14.7021959431763705 9.6974661129648680 N
atom 9.4817297150604460 14.8105650748804027 4.5315010335957657 N
atom 11.1736430912577855 11.9644015318234551 15.0194085992915252 N
atom 11.2683170047432224 12.0831638527240539 9.6308559773769229 N
atom 14.4118523262172644 0.9318580760118658 9.7787107737258143 N
atom 14.3173114769599028 1.0054241423361152 4.4879039967909300 N
atom 3.1135158676749302 14.6781837230275105 15.0261051678659303 N
atom 3.1512772125582695 14.8391999718517944 9.8162829842838661 N
atom 3.2404860806193767 14.7514625368762839 4.6776015240059783 N
atom 4.8406799254799440 12.0934031924429632 14.9293435823767702 N
atom 4.7598096673671888 12.0889069446172392 9.8541991103171060 N
atom 4.7586319043099721 12.0165700564383684 4.5553384923932105 N
atom 6.4077507445492454 9.3068552127684097 14.9384990485711082 N
atom 6.4214922452351937 9.3273426457084518 9.8563320990640850 N
atom 6.5113184561322024 9.2265504255365105 4.4680483652800200 N
atom 8.0252989972150619 11.9222822390681085 4.5049695279176749 N
atom 9.5868151812523976 9.1589599668768091 15.0179791519870722 N
atom 9.5463949173808960 9.2512712898642793 9.8902201155642668 N
atom 9.4908923304709401 9.2913539222392512 4.5814016038138643 N
atom 11.1986130169330860 6.4030280624035516 15.0275678011139284 N
atom 11.1585775989028928 6.4128616550397224 9.7354559237698179 N
atom 11.2389214541974027 6.4180939145758975 4.4895075546426160 N
atom 12.7493475286787561 3.6239547763314262 14.9594124507488413 N
atom 12.8839435468043959 3.7480570667598241 9.6595200920872752 N
atom 12.7146751670633247 3.8084018575069827 4.5004705959162647 N
atom 14.5012530042637220 0.9622884268290816 14.9696354748242957 N
atom 6.4659018711758884 7.4236235863130799 1.9479314878049589 N
atom 8.0691328323435982 4.5933204760167428 12.3500930024262594 N
atom 8.1956213887793119 4.5922839601411463 7.1898635916477476 N
atom 8.1268610020400924 4.5208325251151891 1.9455625329908919 N
atom 9.7023691846409079 1.8434979017089344 12.3119430962061926 N
atom 9.6035418034379454 1.8013958152514227 7.0828521316277353 N
atom 9.5883555016160322 1.8827189960523689 1.9488417272501686 N
atom 15.9541787159826924 12.9494774218626532 12.4294611743878534 N
atom 0.2780576040833680 12.9434022737590677 7.0711242420927114 N
atom 15.8827268190732145 12.8597076818292546 1.9445107654642833 N
atom 1.4827748578052957 10.1673697430781136 12.4899498963830577 N
atom 1.5566293645064513 10.0488099133049698 7.2736891688423375 N
atom 1.7099322494577074 15.8755037403624151 12.5410391003604413 N
atom 1.5596793948893293 15.6868505302113785 7.0992035460163745 N
atom 1.8000015377644480 15.8266678439433885 1.9198863478678914 N
atom 3.1753876629684852 13.0417392854857503 12.3892089642544843 N
atom 3.2649083830659031 12.8866368575072645 7.1242515602810519 N
atom 3.1773738413873662 13.0293401864909892 2.0355036839175047 N
atom 4.6866122037130875 10.1748341805179265 12.5203651592658254 N
atom 4.8878373053511330 10.0418970753269168 7.3464628819738493 N
atom 4.8205432728465389 10.1341541819696630 1.8679768620705308 N
atom 6.3374164384406395 7.3471380907781336 12.3781529720659567 N
atom 6.3477138156558635 7.2910843037201323 7.2945851319456088 N
atom 0.0252480312036621 7.4189734852909002 7.2159804239245195 N
atom 0.0385725053950500 7.4050003675235052 1.9661775239859576 N
atom 1.6254238054176640 4.6042598442905085 12.3800717330913805 N
atom 1.5905950033216036 4.6404615759648795 7.1727857139445268 N
atom 1.5708612506000299 4.6024148290520683 1.9846848755575122 N
atom 3.1382990878268835 1.7165627298076080 12.2927407277464145 N
atom 3.3743031952234461 1.8165021915007804 7.3041698465674312 N
atom 3.2840252597320139 1.8498448444096123 2.0161435935745873 N
atom 0.0555611806108034 1.8240414650031014 12.2026001908521238 N
atom 0.1129347493270337 1.7177956211547998 7.0371156217781117 N
atom 15.9804827693629488 1.8261255297919334 2.0528206196946930 N
atom 1.5390262185534518 10.0525047563391752 1.9873524425146163 N
atom 3.1515196825420069 7.4368368613163218 12.4176335416856691 N
atom 3.1938533304029049 7.3865015193961137 7.1087293531399389 N
atom 3.2661504246840622 7.5069554943351688 2.0177493701435054 N
atom 4.7779633649392359 4.5464561186723556 12.2148682032285230 N
atom 4.7808310739838493 4.6488905149611641 7.1881031287861408 N
atom 4.7466002792173150 4.6293289198145455 1.9901109950725009 N
atom 6.4027717429389348 1.9554067479683710 12.3214349448502176 N
atom 6.4465702094862110 2.0151116707493513 7.0582523574679490 N
atom 6.3244649278596903 1.9329935707744061 2.0347908215967210 N
atom 0.0763284164564331 7.2606226688785913 12.3564466696802686 N
atom 14.4204144520321869 10.0740838391416201 2.0370935287670027 N
atom 8.1432623233165486 15.7169791065540849 12.4123411445382903 N
atom 8.0066351307777133 15.8865228228964153 7.2066601841440603 N
atom 8.0070297371000603 15.6365841729816495 1.8677422560593904 N
atom 9.5918994955105674 12.9427303712342550 12.4430655201812161 N
atom 9.4804327955797483 12.9946507394085078 7.1038692825127709 N
atom 9.4851331567770760 12.9074215721908541 1.9816807921693333 N
atom 11.1505800747304793 10.1341214050811672 12.2757217190887467 N
atom 11.1019819347788200 10.2502225681146317 7.2037462870954521 N
atom 11.1855894930257307 10.0608759511334647 1.9908173745844886 N
atom 12.6803322333488548 7.2673531271730507 12.3899599872616424 N
atom 12.8602185926194235 7.4070190039140975 7.0259692811226486 N
atom 14.5305789909771796 15.7122204000948447 12.3762682799876007 N
atom 14.4553655761608724 15.7266626715468441 7.1312955537212463 N
atom 14.4455489222945594 15.8000697405074657 1.9053104577019575 N
atom 11.2243934380297752 15.7478174955433303 12.2904598064386956 N
atom 11.2103388942168962 15.6309414361863102 7.2033741644627112 N
atom 11.1720251644489625 15.7793756420650571 2.1137591348462812 N
atom 12.8072974550174763 12.9434968548603546 12.4931465957173273 N
atom 12.8824262021877463 13.0888757281943651 7.2591312809782469 N
atom 12.7623902692661151 12.9061306429342313 1.9205503524839924 N
atom 14.4148664613544852 10.0771808068910484 12.4548504053355256 N
atom 14.5682160663196640 10.1759308909606698 7.2074636039370921 N
atom 7.9912935416322961 10.1472729141854927 7.1006393491125737 N
atom 8.0139216875666257 10.0935533728638820 2.0288805416986371 N
atom 9.7753228366385958 7.2648287323980174 12.4193324058572827 N
atom 9.5583597970578715 7.5189074912214382 7.1501568138522975 N
atom 9.5405886540072853 7.2644560631672803 1.9284148250683701 N
atom 11.1646648622579203 4.5825192236712580 12.3798252729412397 N
atom 11.2222086860568240 4.7466628525926504 7.1900178705873197 N
atom 11.1902349044568261 4.5679187382063988 1.8405695383501395 N
atom 12.9487874476496412 1.7789100073166475 12.2846109588554775 N
atom 12.6923394980342916 1.9013560156805245 7.1973830883756280 N
atom 12.8210036535739480 1.7776446850352388 1.9507485286297814 N
atom 12.9040616272396154 7.3738719877097303 1.9242869232193616 N
atom 14.3531838896756110 4.5682870811169787 12.3125661580090444 N
atom 14.3540114667490535 4.6396609670435192 7.0243650803808242 N
atom 14.3888353217796983 4.5608657015822054 1.9969068399370249 N
atom 4.8892946846869370 15.8188442357516372 12.3160362477431118 N
atom 4.8083496698980639 15.6238572788114656 7.1739497267004637 N
atom 4.9281647600867675 15.7970690705531140 1.9050999774428115 N
atom 6.5000450395189713 12.8930282785854775 12.3773826849429902 N
atom 6.3447506956993314 12.9970281327690991 7.1148745934847311 N
atom 6.3587479897164867 13.0045851765254721 2.0378461937841910 N
atom 7.8265269208194361 10.1208750180141891 12.4397387941496245 N
