#===============================================================================
# Created using the Atomic Simulation Environment (ASE)

# Thu May 11 09:00:43 2023

#=======================================================
lattice_vector 16.5841519999999996 0.0000000000000000 0.0000000000000000 
lattice_vector 0.0000000000000000 17.2347563186669994 0.0000000000000000 
lattice_vector 0.0000000000000000 0.0000000000000000 16.1779175999999900 
atom 0.0393184547741674 15.3930480088682007 2.9029027905429974 Ga
atom 1.6472008809978724 12.5662048750146411 13.5285399997658775 Ga
atom 1.5202630656427696 12.4818806178262136 8.1248442836203463 Ga
atom 1.7835450891651687 12.3738447056526955 2.6387343380893769 Ga
atom 3.2514898781829129 9.6206547373593239 13.5128947295359279 Ga
atom 3.2414505120592656 9.4805686358966046 8.0231101471864932 Ga
atom 3.1795915675401520 9.5491619545772100 2.7186364799831657 Ga
atom 4.8782369837210995 6.6866915919470244 13.3214921562697999 Ga
atom 5.0150733462598405 6.5085433621588100 8.0118218281794675 Ga
atom 5.0974302178958206 6.8880179281517719 2.7404212609692342 Ga
atom 6.7067666808514517 3.9134585894935219 13.3981690930964366 Ga
atom 6.6972784162272037 3.7618264130204460 8.1138997372196506 Ga
atom 8.3911253597727722 6.8050620387412888 13.4937872692105199 Ga
atom 8.3058204029813041 6.7894458770761998 8.1551458321324333 Ga
atom 8.3515168593359519 6.7022754849040922 2.6270937400931347 Ga
atom 10.0613822849097474 3.9238097839734043 13.6066787738987163 Ga
atom 9.8943593048783569 3.9097249172447017 8.0047212528238703 Ga
atom 10.0485206815821400 3.8683396477482805 2.7156943214013354 Ga
atom 11.5433139952792843 0.9651744159199019 13.4477795813032994 Ga
atom 11.6316100778172107 0.8843988554899556 8.0967335954306687 Ga
atom 11.5271754573079832 0.9684007895476316 2.7223251432804152 Ga
atom 16.5304439128122311 15.3006400482998082 13.6109304317278319 Ga
atom 0.0206752485341535 15.3113527741758588 8.1507255745913518 Ga
atom 3.3274262273201360 3.6051607353856903 7.9713118034836139 Ga
atom 3.2587691639349625 3.8937121300220561 2.6972888279599276 Ga
atom 5.0334607970265797 1.1191551154507395 13.4145670702705395 Ga
atom 4.9810822777259460 0.9378833915172204 8.1305317437296161 Ga
atom 4.9380642964867567 1.0050657654686415 2.6757387928969911 Ga
atom 0.1670973146951240 3.8924575979778098 13.3797550894599766 Ga
atom 16.5412632616111388 3.7850680669225683 8.1118937573465324 Ga
atom 0.0249963146745030 3.8916184468069095 2.7303154797509079 Ga
atom 1.6448798018381303 1.0532588932814895 13.4802230714350042 Ga
atom 1.5379452319625622 0.9808071568854295 8.1824893497674687 Ga
atom 1.7985832481331911 1.0863043983908076 2.4933435930760037 Ga
atom 6.5886207426196126 3.9169782664913351 2.7087623871553772 Ga
atom 8.4047743654106490 1.0035715490902175 13.4047951998330994 Ga
atom 8.3472131622174714 0.9401694104825736 8.0258337875343173 Ga
atom 8.3028701546654844 1.0769289986496937 2.6246421808337175 Ga
atom 0.0093841686241007 9.6872739491366193 13.2857091135277514 Ga
atom 16.4985731250166054 9.5080599592473192 8.0521285258720869 Ga
atom 0.1053808341541110 9.5593842012586059 2.6980330191307234 Ga
atom 1.6482432533891465 6.7101888628000319 13.4612890629720123 Ga
atom 1.7604453242321190 6.7293152508542784 8.0951302085153571 Ga
atom 1.5900519615420317 6.5298392311767657 2.6774296943323037 Ga
atom 3.3866643428344760 3.9264184540489890 13.4508352066856602 Ga
atom 11.5470660293156939 12.5665510715316433 2.6769150496276253 Ga
atom 13.2586818878650003 9.8037190743275460 13.4876724741982876 Ga
atom 13.1923505513644201 9.5786174256485292 8.0087369209899908 Ga
atom 13.4143678331331468 9.7181275235532034 2.8052305839205891 Ga
atom 14.9844438130201265 6.7825531535911665 13.5466208629627634 Ga
atom 14.9850481563427991 6.7138734488069405 7.9510003598148380 Ga
atom 15.0492722334371383 6.6779123361986779 2.5014003211524058 Ga
atom 6.7164115629177212 15.4249670124835472 13.5888255248433332 Ga
atom 6.8715113132355627 15.3450426405639497 8.1171959696216156 Ga
atom 6.6476721081638876 15.3272522415363959 2.8654969754548194 Ga
atom 8.1367119220273860 12.4130550530721884 13.4658116137198487 Ga
atom 8.2919371119796743 12.3746235123166421 7.9240461041982977 Ga
atom 13.2633883028965336 15.2787866770041152 13.5848421970097615 Ga
atom 13.3924013588447384 15.2659215330506868 8.1325126105985959 Ga
atom 13.4302830928833448 15.3351655654746200 2.8793825138920344 Ga
atom 14.9781302067718229 12.4524954832221226 13.6485405357413985 Ga
atom 14.7248880403805558 12.5011367505235942 8.3739544341464320 Ga
atom 15.0444243092003536 12.3681944054193984 2.8267353785359237 Ga
atom 9.9686345360956654 15.1093516371476113 13.5501763740261740 Ga
atom 10.1744687237872515 15.4207199329334994 8.2005222799672008 Ga
atom 9.8749499863104866 15.4009958704587397 2.7566901233550638 Ga
atom 11.4918495020712914 12.4543551901916505 13.7037624870555561 Ga
atom 11.4135491892738887 12.3078623727822656 8.1448470761184435 Ga
atom 14.8676570881108354 0.9128930021630346 8.2427074164234497 Ga
atom 15.0266103107266780 0.9568669315006304 2.7763751026462935 Ga
atom 3.3437619899742641 15.2493088365216973 13.5239150418399579 Ga
atom 3.3819371718400095 15.3675045820491540 8.1402157612267008 Ga
atom 3.3293382674642200 15.3151950420423972 2.5377073484426114 Ga
atom 4.9345537566416517 12.4277886523574495 13.3948895722416523 Ga
atom 5.0030243634128313 12.2913951657892202 8.1020045381643335 Ga
atom 5.0429482584289342 12.3394120118293440 2.6519090086511756 Ga
atom 6.4567436693556122 9.5912486293042463 13.4137923029034258 Ga
atom 6.7339111525724480 9.5930576162584842 8.0052958570511628 Ga
atom 6.6724863878555114 9.5607899566759098 2.7110171660026414 Ga
atom 8.3676324423990351 12.4621753186764046 2.6861283709012365 Ga
atom 9.9574001951627515 9.6182483364873992 13.4349065353425043 Ga
atom 9.9260563449829124 9.4575022272088116 8.0427435695359435 Ga
atom 9.9515166760124281 9.6140155759510328 2.7732090119302915 Ga
atom 11.4924470945619834 6.7178536285761927 13.5205564875082676 Ga
atom 11.7667432993549284 6.6347717159736979 7.9571948743774321 Ga
atom 11.7123634314592540 6.7444043275409369 2.5725633137142312 Ga
atom 13.3041657078029409 3.9417793889454953 13.5380411946276400 Ga
atom 13.2961061264930471 3.7147436017068474 8.0579520593242666 Ga
atom 13.3869421005098079 3.7663038194091998 2.6634360230845471 Ga
atom 15.0453949176241917 0.9228794347660931 13.5346852605379748 Ga
atom 6.7030125876565787 7.6775462795166733 5.3083297523750446 Ga
atom 8.1971420241970918 4.8623851481239422 0.0282745130695052 Ga
atom 8.2645400624855476 4.7590959057182385 10.8173619998454900 Ga
atom 8.2802513217054035 4.7593427710473772 5.3717049737595390 Ga
atom 9.8311675086191279 1.9963576190956911 16.1577199417467732 Ga
atom 9.8805982035936815 1.8527097229498453 10.6990766404439057 Ga
atom 9.9581239379962536 1.8381604996577123 5.3849825844550310 Ga
atom 16.5723814392490176 13.5280141446241906 0.2828210024212212 Ga
atom 16.5250539729470098 13.2302200484121038 10.8470014020770833 Ga
atom 0.0613592037755975 13.3820948788978207 5.4535225181252702 Ga
atom 1.4434052106482413 10.5798346474859102 16.0527415702662850 Ga
atom 1.7444534141796761 10.4759979433709631 10.7470317113766871 Ga
atom 1.5685968463764062 16.3210622672629384 16.0548673699643309 Ga
atom 1.6069288057059821 16.3578214697694477 10.9474296794224344 Ga
atom 1.6792742739885178 16.2655092963277319 5.3148020831415144 Ga
atom 3.3971842555213692 13.2439772533028268 15.9978611192367879 Ga
atom 3.3357888455450335 13.4881638964518302 10.8228942580585397 Ga
atom 3.3513277238028030 13.3859542350485157 5.4580425967441233 Ga
atom 4.8997523230633755 10.4843707050285264 0.0859372716121877 Ga
atom 5.0541238795553527 10.5097474196436522 10.8429320784341012 Ga
atom 4.9530467135299601 10.3524221578798041 5.2777241906291446 Ga
atom 6.6773402014397716 7.7082566932425536 16.0704749589175080 Ga
atom 6.6197621585819020 7.6035150737183184 10.8533109869958864 Ga
atom 16.4885795348116027 7.6476376900565812 10.7175843310159458 Ga
atom 16.3291892416254711 7.7051185359813168 5.2755856478889021 Ga
atom 1.6171582906129525 4.7807899036276007 16.1127325996341817 Ga
atom 1.6569384951371580 4.9321609614321016 10.6766556387139993 Ga
atom 1.6359125033528312 4.8097807934718233 5.3903441997310697 Ga
atom 3.2660744389132739 1.7769865207301705 15.9192726661145834 Ga
atom 3.4289492142840778 1.8680567916569355 10.8239256351899851 Ga
atom 3.4193606907984480 1.9544459402543113 5.4071538425689152 Ga
atom 0.0196382788911013 1.9598009199271751 0.0550377578125741 Ga
atom 16.5765485181553771 1.7245948276832779 10.8530880522780588 Ga
atom 0.0884840911686754 1.8202765620614723 5.4062860816854181 Ga
atom 1.6256646028550421 10.4718432222948135 5.5480270370308054 Ga
atom 3.2879956597310884 7.5918853181953212 16.1193367973418091 Ga
atom 3.2727022704777120 7.7680349838307556 10.8012859818546740 Ga
atom 3.2783855490863205 7.6323144520762751 5.3409631497346535 Ga
atom 4.8984536965327798 4.8551849353238374 0.0908531229926155 Ga
atom 4.9066919349498814 4.7541978063040489 10.7011082906491293 Ga
atom 5.0729514956754134 4.7759889085909624 5.2157146695521597 Ga
atom 6.5373016975271057 2.0251238480159719 16.1272867731282652 Ga
atom 6.6605420009941314 1.9100198008423428 10.7186054434730291 Ga
atom 6.6662292659310438 2.0177119570382454 5.3961853757228351 Ga
atom 16.5240560314485769 7.6642383587076575 16.0603431381253579 Ga
atom 14.9607489586726281 10.7361964529707592 5.5633755097020741 Ga
atom 8.2149587664935062 16.2599499695402301 16.0726738200002686 Ga
atom 8.3485333811396725 16.2257307340536947 10.6229007682085737 Ga
atom 8.3431514893047041 16.2994924289244985 5.4240322908042460 Ga
atom 9.7677770402316906 13.4242494375886778 16.1477645611112166 Ga
atom 9.8173836387493463 13.3443082400184814 10.8407484386167408 Ga
atom 9.9839050785097925 13.5098091090867296 5.3813825773734862 Ga
atom 11.5466013418973947 10.4545276669401748 0.0889742074139871 Ga
atom 11.4352578976075332 10.6106776203070012 10.8393630907333822 Ga
atom 11.6427601044045943 10.6031117518218245 5.4203225950232596 Ga
atom 13.3578735532484991 7.8274725922406576 16.0943475835522989 Ga
atom 13.2676751565527145 7.6212348008777031 10.8246243501528703 Ga
atom 14.7870232535319523 16.3077278815190674 0.1536528285448668 Ga
atom 14.8725372857475602 16.2009783271940506 11.0598567564382382 Ga
atom 14.8377131138534075 16.3838202123969765 5.6009522151097881 Ga
atom 11.5766297821055399 16.2016747311570803 16.1480042758465139 Ga
atom 11.4958283025317041 16.2164944719201394 10.8840553479529909 Ga
atom 11.6475713543524559 16.1644832977763251 5.2930429907270229 Ga
atom 13.1712459282685526 13.3156001790279497 0.0967177605889170 Ga
atom 13.0587011339062968 13.4027598253844697 10.9643632910018027 Ga
atom 13.2864882256762158 13.3323659001410988 5.5708923471284288 Ga
atom 14.9332681726070824 10.5721430661785885 16.1635155485032342 Ga
atom 14.7170538409400393 10.4422786232474216 10.7055553322193866 Ga
atom 8.0451016988730721 10.6085759253952556 10.7888188283040023 Ga
atom 8.3855948799378517 10.3902985019790179 5.2617607715767329 Ga
atom 9.9377940697086355 7.7615480378024131 16.1667493723789626 Ga
atom 9.9875418578725146 7.6819830719033115 10.7107383204244293 Ga
atom 9.8661135142874024 7.5610470580651263 5.3755275487969438 Ga
atom 11.7130330885318354 4.7312430549663747 16.0570827156064446 Ga
atom 11.5267966425932489 4.6937441176166965 10.7094866493351510 Ga
atom 11.7447899609628621 4.8873407911761664 5.3490144556643591 Ga
atom 13.2772730613229744 1.8189444094636158 16.1143517860720742 Ga
atom 13.1713739596780872 1.9976646187789933 10.9150299975325229 Ga
atom 13.2346059174463662 1.9473621521335367 5.3875322666673915 Ga
atom 13.1872395331510113 7.6132449018048227 5.2815370676328133 Ga
atom 15.0172364297804339 4.7507916903561780 16.1304367792082175 Ga
atom 14.9430529336642568 4.6483127292453501 10.7297461605270605 Ga
atom 15.0263991024376349 4.7166019509360684 5.4318719486726730 Ga
atom 4.9513281978395751 16.3371481820786819 0.0630943457558540 Ga
atom 5.0691219361418032 16.1996398272488094 10.7845742442164561 Ga
atom 8.1004657909147149 10.6260267028004041 16.1657975792939084 Ga
atom 6.7243292040047287 13.1956760437030809 5.3955930863429966 Ga
atom 6.4870128731173580 13.4857646600419070 10.7595234854460777 Ga
atom 6.5764929658066844 13.4344592896792907 16.1744113421564819 Ga
atom 5.1113358385459913 16.1240132966693572 5.3472652165297276 Ga
atom 3.3886575268498267 9.5944714135859481 10.0364202201524808 N
atom 3.2599920824121416 9.4467297818106406 15.5872781633437505 N
atom 1.6724009452571333 12.3055546321908480 4.7086105188686922 N
atom 1.7473113669191855 12.4852706956324138 10.1883428814802084 N
atom 1.5007675546685180 12.4770050116495046 15.6081710125633766 N
atom 0.0071140185553294 15.4595546435765669 4.8085412086556918 N
atom 3.2607808631510213 9.3887569788791474 4.7256939496552004 N
atom 4.9286840520401931 6.7917152512931604 15.3199651765764902 N
atom 5.0037912504484527 6.6795735999279220 10.0957758201064358 N
atom 5.0830639619045233 6.7086369949771765 4.7173155931124295 N
atom 6.7045662567707760 3.9095629217170438 15.3735836893820146 N
atom 6.6353800829586653 3.7953261543569043 10.1245638047240405 N
atom 8.2529610657290551 6.7631368759492938 15.4603523068182209 N
atom 8.3304254862207987 6.7607143220253709 10.0476045968190242 N
atom 8.3658787238787937 6.5245559734754330 4.5689301946456293 N
atom 9.9325056534870200 3.9140580781337624 15.6317916934877594 N
atom 9.8247687901569325 3.7605994314137412 10.1482926588571676 N
atom 10.0599162625012113 3.7452499608839367 4.7546144190612578 N
atom 11.5818233159322599 0.9909060926475433 15.5800280463722398 N
atom 11.6628073944101764 0.7716766012982216 10.0953491424884856 N
atom 11.6370820639327341 0.9439108229038883 4.6977054302927037 N
atom 16.5183484168458605 15.3938274970183695 15.6646420997521982 N
atom 0.0849207585493803 15.2600126565054577 10.2185927613076988 N
atom 3.2706859921079587 3.7644867397818924 10.1167494526039494 N
atom 3.3098868076306047 3.8061956643506725 4.6285965043570503 N
atom 5.0561955010906239 1.0051239605291709 15.3578152311361364 N
atom 4.9686425185783998 0.8903993485285222 10.1229013863236190 N
atom 5.1391041073754273 0.9124107507690086 4.7020542465905111 N
atom 16.5512579721333175 3.7949373245951210 15.4279316397090085 N
atom 0.0770900597288150 3.6813257874535639 10.1679082687815860 N
atom 0.0350150468410088 3.7638506037567923 4.8190655846061974 N
atom 1.5484713029560533 0.8763815592120286 15.4979652511937953 N
atom 1.7400766297477537 0.8489830598685598 10.1869830875302956 N
atom 1.8834904054926378 0.9585599059459414 4.5842134872807376 N
atom 6.6553029632842478 3.9114681397530440 4.6831689008191306 N
atom 8.3099252929762457 1.0103429693056707 15.5299545030157002 N
atom 8.3397744941812437 0.8291288770808906 10.0269971705030443 N
atom 8.2170882226054136 0.8886364746189117 4.7386463941699422 N
atom 16.4625023205557035 9.5653679702654557 15.2704379483639077 N
atom 16.5005064738455474 9.5959488813633040 10.0574275905292652 N
atom 16.4759387037042409 9.6718279081759775 4.8219402211790845 N
atom 1.6412188839895949 6.6918236577039139 15.4964357574047220 N
atom 1.6342484370604160 6.7767621284771664 10.0831361051167132 N
atom 1.4685688628403883 6.6482866581919131 4.7061613928130566 N
atom 3.3241292185380815 3.8522249341129982 15.4212551162597435 N
atom 11.6638018313383114 12.5206425627231610 4.6897864989846836 N
atom 13.2506604338500829 9.7933066339779504 15.4916921281224642 N
atom 13.1336031625061409 9.5919415076521020 10.0629483552811809 N
atom 13.4697304104576201 9.5821347201474083 4.8251147800118579 N
atom 14.9533565932430044 6.6672757567518541 15.5929433825595680 N
atom 14.9366832034458401 6.5267186982319760 10.0278452995678222 N
atom 14.8891686118823650 6.6216602756104370 4.6241168337125513 N
atom 6.5002687590672519 15.2221918718027140 15.5628920340951371 N
atom 6.7302799537556455 15.5176964810578220 10.0861563474202232 N
atom 6.7512873098436259 15.1698046739537471 4.8366508858992701 N
atom 8.1877385619632665 12.5063808804844285 15.4489865636329640 N
atom 8.3286328710806998 12.5475198322903996 10.0810412698215863 N
atom 13.2041222309494604 15.2693950333843560 15.6178947398297012 N
atom 13.1540462340796527 15.2907881512314194 10.3203990408744577 N
atom 13.3722248208737771 15.3337108816659544 4.8408012274643344 N
atom 14.9044469569074991 12.6201769545760527 15.6417570762544997 N
atom 14.7346600208983070 12.3384030864646359 10.2698740047780479 N
atom 14.9069894962042451 12.5365463228526899 4.7981859763501271 N
atom 9.8678305560440300 15.2758824453784641 15.5605703300243512 N
atom 10.0079588948689082 15.2779425018488375 10.1505732657872496 N
atom 10.0511340211837048 15.3918657327959671 4.7387800936127853 N
atom 11.4525919340005284 12.4727022799291571 15.5773317565838809 N
atom 11.5742868052248635 12.3826333976222944 10.1444429849390279 N
atom 14.9198802803212835 0.8239118474883104 10.2067020576029019 N
atom 15.0591634680608504 0.9622606486138060 4.7239753652632652 N
atom 3.3163220666476221 15.3990022748899023 15.5693190603408755 N
atom 3.2298648810983459 15.4425452577415854 10.2813036433846374 N
atom 3.3733435130921094 15.2758070437347548 4.6884324504698096 N
atom 5.0428788109069949 12.2767798289174266 15.4702328638732087 N
atom 4.9399354327290768 12.3288943517414680 10.1833945987361947 N
atom 5.1141037256036537 12.3703910192626605 4.6857678330887724 N
atom 6.6420815241199183 9.5746601920639041 15.4430459279892656 N
atom 6.6617098706766464 9.5694550329976362 10.0150059844027943 N
atom 6.8436092861973563 9.4775868010786031 4.5920987714017603 N
atom 8.3780843096011335 12.2640921969307062 4.7574590373325067 N
atom 9.9065463150973603 9.6491218624869628 15.5318582228665321 N
atom 9.7983935916159322 9.5397911493784289 10.1597166903162623 N
atom 10.0752056217477755 9.4915345690921029 4.8611623184035659 N
atom 11.7217842908900955 6.8699109772408580 15.5252075768652222 N
atom 11.6293554044155787 6.7141917254402692 10.0759291614977240 N
atom 11.6517597001449751 6.8212506269240105 4.5209314819919761 N
atom 13.4568614791073529 3.7531196888159739 15.5579599209980852 N
atom 13.1059934855311759 3.8683870491117962 10.0266932730170542 N
atom 13.3853355993018894 3.8726189663679094 4.6677259334804013 N
atom 15.0586360698257131 0.9620572105958531 15.4227310195220877 N
atom 6.8181928416638327 7.7472804969402080 1.9310764912912484 N
atom 8.2960895868698419 4.8692550577614240 12.8253183174775316 N
atom 8.1262914408984663 4.8385555652732020 7.4490835083185329 N
atom 8.3583108184057995 4.6671913544250225 2.0403853517840624 N
atom 10.1021392315972900 2.0244831014665747 12.7461395583451544 N
atom 9.9471499281799414 1.9776030876572388 7.3948953131162369 N
atom 9.8461807688823182 2.0390850781613983 1.9379045648919746 N
atom 16.5367685853056194 13.4487637933946083 12.8163935816518340 N
atom 16.4167379049178628 13.4769585399914877 7.5139544932533369 N
atom 0.0651637786941558 13.4810354409327893 2.1464513589007668 N
atom 1.8019674013579234 10.5011219495514823 12.8323567798766387 N
atom 1.6047992752531268 10.5819489787906953 7.4683395442021370 N
atom 1.6956721885297796 16.2478655630785980 12.9201560218367248 N
atom 1.7441067661330969 16.3226151591679454 7.3743433987751841 N
atom 1.7108391297261292 16.3968755790229714 1.9878854551499745 N
atom 3.3666385286012392 13.3794270027827924 12.8775273741392038 N
atom 3.1963001185092765 13.3603579301402107 7.4771582018099192 N
atom 3.5499256897046938 13.3175481526892856 1.9235680237453052 N
atom 4.8217751181418151 10.5879179217528439 12.8798076007130184 N
atom 4.9232487724281446 10.4540556778615006 7.3602029615272304 N
atom 4.9322351398107278 10.3792192075011229 2.0963659857383625 N
atom 6.6684539747372487 7.5747442078919818 12.7699488338656977 N
atom 6.7262519541520502 7.7680940180739757 7.4412259271437300 N
atom 0.0733707972381483 7.7412184605750287 7.3421157128379964 N
atom 0.1567628523456346 7.8045006078532495 1.9258776237773727 N
atom 1.7462223070553793 4.8664074020878063 12.7184813593654500 N
atom 1.6801962623375126 4.7571218309692984 7.5609015582181787 N
atom 1.5194665917353509 4.8112875328104963 1.9260889983844420 N
atom 3.3414983093307820 1.9433669369098849 12.9730717609703508 N
atom 3.3216349875279847 1.7967300719802455 7.4864951851826564 N
atom 3.3671429601353320 1.9680836340829502 1.8760478650683485 N
atom 0.0305560587559448 1.9419639673518572 12.7694913174796216 N
atom 0.0474824435413808 1.9304370136664677 7.3736222181025752 N
atom 0.1007928911040071 1.9808252470539005 1.9884129061848625 N
atom 1.4864088740931383 10.6580592481367429 1.9518240742711004 N
atom 3.3783470712811168 7.6782424497271142 12.7607876132460110 N
atom 3.4553419261954068 7.6411685639994964 7.3875917426064550 N
atom 3.3209322399327323 7.5876872181032207 2.0398154994659285 N
atom 5.0219596994075699 4.8642874167395567 12.6563508264909039 N
atom 5.0911889413700306 4.6447085517917097 7.2310272243648743 N
atom 4.9316431463934371 4.9043187452923505 2.1112351992866878 N
atom 6.6270852805132963 1.9019083186570760 12.7160954696007202 N
atom 6.7456765977374289 1.8475951291922446 7.4805800924833941 N
atom 6.6295575931301478 2.0558351889296889 1.8574028719162305 N
atom 16.5393664402124863 7.8009280933426544 12.7715761957553617 N
atom 15.0272569069773532 10.5927251046903823 2.0348427964188343 N
atom 8.3208414617739752 16.2416930972709217 12.7938864827382872 N
atom 8.3635491054645588 16.2849278353292277 7.3982553018112229 N
atom 8.2477117723439193 16.2957874385517023 2.0775527065307746 N
atom 9.8314682407701834 13.3275586717475800 12.8092552024958373 N
atom 9.8979229189517746 13.5278240579883118 7.4493668333694796 N
atom 9.9764310550524264 13.3680178955889790 1.9242805262038654 N
atom 11.5613542993115050 10.5354721460351080 12.8099528702420571 N
atom 11.4899114598286562 10.6244235429136396 7.4462174392823544 N
atom 11.5476237483229269 10.6110721506614318 2.0737956955805128 N
atom 13.2154192584550056 7.7568817049123080 12.8432951739566672 N
atom 13.1930065299785184 7.5559330664723321 7.3268359474918965 N
atom 14.9554076534522569 16.2877480261441399 12.9765560256075574 N
atom 14.8654578753152276 16.1849905377310996 7.4755136831313820 N
atom 15.1225621891011048 16.2713217468962661 2.2196154508169581 N
atom 11.4827859459589146 16.2484956419853006 12.9228190399503635 N
atom 11.6473217668588145 16.2150752859075844 7.3726236470385871 N
atom 11.6386343025112460 16.2105388282497387 2.1079277342950977 N
atom 13.2121452997957629 13.3819329857163503 12.8752787289835755 N
atom 13.1252672347182884 13.3476068886319528 7.5413540884004293 N
atom 13.4054241146595228 13.4206844177190678 2.0852424060920622 N
atom 14.8788166825366464 10.6263245019388837 12.7613559771300444 N
atom 14.9335302959000185 10.5750600206233774 7.5688296222378124 N
atom 8.3583661469611776 10.4785397234745510 7.1929040418437742 N
atom 8.3275154873347432 10.5374400995444280 2.1265360707983652 N
atom 9.9971108268778863 7.8048071208469514 12.7667128749859771 N
atom 10.0918772964121057 7.5693516434213848 7.4097819954204720 N
atom 9.9784932279384098 7.7648949910329863 1.9471688915309706 N
atom 11.6298703214159271 4.8993249765858584 12.7175362163184182 N
atom 11.5890569176826599 4.7385178200021176 7.3480667452481017 N
atom 11.8037815092506833 4.7753144278248145 1.9822382370899667 N
atom 13.2103240534627098 2.0096060972136187 12.8364917455498695 N
atom 13.2915968245452696 1.8827404572923092 7.4035382143046222 N
atom 13.2779389291791858 1.7608772717347574 1.8675976029508310 N
atom 13.3417430954851834 7.8068908886661905 2.1455271682190862 N
atom 14.9300939949750244 4.7783966244728999 12.8775317426857523 N
atom 14.9079249408043193 4.7629399050974932 7.4126614931895300 N
atom 14.9765651934210258 4.6969839016674326 1.9259103668506059 N
atom 5.0843994418519580 16.3843477014073855 12.7091395992546534 N
atom 5.1063191922351070 16.1406427733043785 7.4792140132217542 N
atom 5.0597389414643814 16.2743608266312982 2.0016955734150117 N
atom 6.5374884771123192 13.5277872682033458 12.7951737760689390 N
atom 6.7098655036620842 13.4352917399317793 7.4498354059547562 N
atom 6.6501470139477350 13.3072305876688226 2.2030872087895501 N
atom 8.1471879357516457 10.5413517873653966 12.8145155598284095 N
