#===============================================================================
# Created using the Atomic Simulation Environment (ASE)

# Thu May 11 09:00:41 2023

#=======================================================
lattice_vector 16.5841519999999996 0.0000000000000000 0.0000000000000000 
lattice_vector 0.0000000000000000 17.2347563186669994 0.0000000000000000 
lattice_vector 0.0000000000000000 0.0000000000000000 16.1779175999999900 
atom 0.0302220355760086 15.2182672967850880 2.6763281181427510 Ga
atom 1.6999537253905801 12.3654571637521418 13.4579776696376001 Ga
atom 1.6201949064490386 12.5048918038202181 8.0922420740583760 Ga
atom 1.6177255866478932 12.4334284539656874 2.6190426628805192 Ga
atom 3.4947662233628525 9.5868738025584861 13.4824377378533935 Ga
atom 3.2755336044255365 9.6547693401919723 7.9209491174547360 Ga
atom 3.2007970135982102 9.4631072702946106 2.6989271753606752 Ga
atom 5.0047733625602078 6.6717145440380961 13.4476012122916071 Ga
atom 5.0102022174032790 6.7437695947378113 8.2063165184997402 Ga
atom 4.9782110895511869 6.6255543230637128 2.6354020036719334 Ga
atom 6.6758731076703075 3.8617453559371029 13.5289014346105123 Ga
atom 6.7496286896129254 3.6777757260506978 8.0930618355830610 Ga
atom 8.2954525874191631 6.7742741359042187 13.4756767977207694 Ga
atom 8.3095059652800529 6.6300162231395259 8.0015067485453475 Ga
atom 8.2790676521773925 6.5944540098991764 2.6482661399542562 Ga
atom 10.0038111278830009 3.8096649868494592 13.4728163469728468 Ga
atom 9.8325568811313975 3.8724759980420771 8.2042258847330896 Ga
atom 9.9404872490477008 3.8249340137549890 2.5719583137649979 Ga
atom 11.4944958481672739 0.9781506401733011 13.6603855792976265 Ga
atom 11.6523868497954641 0.9702087200890355 8.1365311662085098 Ga
atom 11.5732632317519890 0.9225130398924888 2.7682968463366806 Ga
atom 0.0976570718876459 15.3565847937689686 13.5391540333464810 Ga
atom 16.5452514621160098 15.3287104478927922 8.1062478285591375 Ga
atom 3.3756456396469532 3.9613971040680540 8.0666434726164873 Ga
atom 3.2860373523767850 3.7460233496607387 2.6470625580215859 Ga
atom 4.8788558858417819 1.0449534585228477 13.5183338838645746 Ga
atom 4.9761314880165077 0.9703561709187051 8.0322180141625061 Ga
atom 5.0273568520271379 1.0484615774494508 2.6941116637705913 Ga
atom 16.5410106971249000 3.8271727651478269 13.4525218419612305 Ga
atom 16.5495589641857350 4.0295385927647747 8.0187635815688321 Ga
atom 16.5760763527888777 3.8770967101899250 2.6850775879471973 Ga
atom 1.6405132422691011 0.9445641975796727 13.4629820372593176 Ga
atom 1.5631961549482267 1.0114524881321401 8.1183949047317014 Ga
atom 1.6938826602677131 0.9179231315300865 2.5921096264015717 Ga
atom 6.5816673848952023 3.8866481398374462 2.6340328289422623 Ga
atom 8.1235954651668880 0.9889341160814488 13.4090964148810414 Ga
atom 8.4241229840607588 0.8870006981059282 8.1838969463145368 Ga
atom 8.1655397292104563 0.8893757676489281 2.8090016245954121 Ga
atom 0.1054250208779845 9.5532190386542748 13.2951073803924960 Ga
atom 0.1706902732412301 9.5093348088299514 8.0236460628480906 Ga
atom 16.5253211865450673 9.5700497651996521 2.6133783564323578 Ga
atom 1.8398451503496835 6.6635254693527495 13.3644155951259389 Ga
atom 1.5473874536842116 6.7855149985751941 8.0979736983389969 Ga
atom 1.6754256809223327 6.6512078432973167 2.6725334201141488 Ga
atom 3.2633932943397399 3.8445171419209045 13.4430611204657726 Ga
atom 11.5579230490591538 12.4504302059337029 2.7858234814392744 Ga
atom 13.3456785965775051 9.7092146869510785 13.3770106968422446 Ga
atom 13.3240967470054219 9.4795396922612660 8.0761084784512978 Ga
atom 13.3807743066422500 9.5511838483667457 2.6815489073620307 Ga
atom 14.8359177379880016 6.7769730279298992 13.4190558219105416 Ga
atom 14.9912360356536372 6.6377694634769275 8.0951492452728946 Ga
atom 14.8838156722752046 6.6887373680504192 2.7680355723714465 Ga
atom 6.5091282143932769 15.4056598012808799 13.5832331529036399 Ga
atom 6.7028671004432914 15.1881389139245222 8.2068255732184578 Ga
atom 6.5630275961313247 15.1334513840028730 2.8371250215380268 Ga
atom 8.3466893451516810 12.5274837461368307 13.4713953329291112 Ga
atom 8.3796538652984260 12.4300762361702546 8.0459189592194882 Ga
atom 13.3335941406132932 15.4003152817001236 13.5847756947493217 Ga
atom 13.2781058299853605 15.2605529653784000 8.0593205104540253 Ga
atom 13.3752234520351116 15.4144143842172472 2.8017750741014638 Ga
atom 15.0218099218089538 12.4734752510631761 13.4451212013845627 Ga
atom 14.9312386944074227 12.4987697211758988 8.0756879202177174 Ga
atom 14.9113576891779154 12.4518887531653117 2.6140896274436844 Ga
atom 9.8923812041819232 15.3970273158762865 13.4933516126548128 Ga
atom 9.9843738645236400 15.2762539157595771 8.2752067289940285 Ga
atom 9.8526069450239682 15.3117639378167052 2.7072247874857251 Ga
atom 11.8096372927852613 12.4016976431688057 13.4664517229169398 Ga
atom 11.7164412763519561 12.2850112710657218 8.0245243403281563 Ga
atom 15.0234599657199137 0.8745485795620419 8.2103875682412735 Ga
atom 14.9433164976136883 1.0259847324875790 2.6136545556464137 Ga
atom 3.3790821236774060 15.2167677584755747 13.5287637055937928 Ga
atom 3.3346597646396137 15.4153023447716233 8.0280186255655845 Ga
atom 3.3247472203887352 15.2707654644645814 2.8033541630239327 Ga
atom 4.9921319053964641 12.4493925236714507 13.3434012734215219 Ga
atom 4.9139700630597947 12.3921082491090839 8.1394954871409748 Ga
atom 4.8946626980577799 12.3784633464098164 2.6801649521037465 Ga
atom 6.8464495177989546 9.6544955559729448 13.4636025159809396 Ga
atom 6.6926052252700172 9.5451092284142707 8.1466008922014552 Ga
atom 6.6198262110840007 9.4684765278445475 2.7544965040949148 Ga
atom 8.2379971468126776 12.4562102491740347 2.8456745055126316 Ga
atom 9.9993493996940259 9.5633199154148105 13.5784957918979217 Ga
atom 9.9960028948559163 9.4709621018200210 8.0297270863372923 Ga
atom 9.9306675020370996 9.5816674366003145 2.6946072669209769 Ga
atom 11.7107297006434408 6.6867227387701300 13.4855344710734570 Ga
atom 11.6461629880846989 6.6747014955169304 8.0128354365109278 Ga
atom 11.6203047898979612 6.7576084104127405 2.5695164772937962 Ga
atom 13.2226019912633319 3.7474362026149017 13.4362209209165755 Ga
atom 13.2990932112403843 3.8033930309149957 8.1320217319781865 Ga
atom 13.3218290435548035 3.7560917084202594 2.6290329361996929 Ga
atom 14.8773201432119304 1.0648208450155476 13.4346411135555979 Ga
atom 6.6760839872594682 7.6189780796313755 5.4502712263119113 Ga
atom 8.3500551080409373 5.0047347993689124 16.0906838594342574 Ga
atom 8.1643577308885060 4.7914329801635773 10.8537350920966684 Ga
atom 8.2765187191868872 4.7680998149721727 5.3438874706369139 Ga
atom 9.8684139131865525 1.8954951983104678 16.1176104870390766 Ga
atom 9.8936312507220681 1.9085588796802297 10.8415440518768271 Ga
atom 9.9482979114634968 1.8465146437286291 5.4878412719041538 Ga
atom 16.5733548365117862 13.3647509707331142 16.1465450184236055 Ga
atom 16.5588080343632704 13.5127431416402732 10.8078648004086055 Ga
atom 16.4916012776232854 13.3988557186059403 5.5264805802181263 Ga
atom 1.5886142497484930 10.4643062854972513 16.0784586226230743 Ga
atom 1.7290032048728738 10.4948964111554961 10.7961067967135698 Ga
atom 1.7182577933950176 16.2689993422153236 0.0931388994528308 Ga
atom 1.5363359995439854 16.2942446126311147 10.8602882144166770 Ga
atom 1.6078306699845544 16.2774616472356506 5.4022837850231165 Ga
atom 3.3419770069085133 13.3789690369733432 0.0408783333013165 Ga
atom 3.3859261511847500 13.5454691528262838 10.7428865597634626 Ga
atom 3.1619494503170520 13.3724572548464575 5.4135978004792324 Ga
atom 5.1151905778667395 10.5976324717795567 0.1105929793119080 Ga
atom 5.0599652704307960 10.5715545337618728 10.6773164306484709 Ga
atom 4.9935480334462037 10.5478310389061036 5.3054237866197118 Ga
atom 6.6068907495880165 7.7469742633534464 16.1543653086151906 Ga
atom 6.6643135221831233 7.7420081324664345 10.7537901338843014 Ga
atom 16.5678549444315912 7.6222941260983186 10.7330844982830502 Ga
atom 0.0103813703418224 7.6238681564188537 5.2706999346218275 Ga
atom 1.5639809571354428 4.9193097317840833 16.1018322285554660 Ga
atom 1.7465991656527986 4.7970453865815106 10.7431072140620856 Ga
atom 1.6583406440111377 4.7718156309364463 5.4190616303989847 Ga
atom 3.2666485422026308 2.0032583885999982 0.0658572334760026 Ga
atom 3.3460967237464687 1.7959518154516148 10.7100724800091527 Ga
atom 3.1911293278750028 1.8518827924146823 5.4209140588662885 Ga
atom 16.5689152405773221 2.0069838068851436 0.0015067764087069 Ga
atom 16.4531021228695771 1.9699333414566849 10.7733708456241235 Ga
atom 16.4946209731870752 1.8521111315379206 5.4230405341451160 Ga
atom 1.6223122999798096 10.5889723113444383 5.2148244465832780 Ga
atom 3.3025610092026536 7.7793307696557994 16.1364367454662343 Ga
atom 3.4244789881077846 7.7208536456815748 10.7524996183521804 Ga
atom 3.2533672215839324 7.6240115361712375 5.5737834112451550 Ga
atom 4.9308879932559844 4.7822087777760345 15.9532293178708624 Ga
atom 4.9799503650860260 4.6545197364471793 10.7867523022885656 Ga
atom 4.9846332831238280 4.7006495325468887 5.3704375689266106 Ga
atom 6.5284119914540701 2.0368882481805044 16.1673150479062748 Ga
atom 6.6375968813858979 1.8952766175970843 10.8286935115745333 Ga
atom 6.6230585591517901 1.9041355258354482 5.2745229192085556 Ga
atom 0.0347871968403542 7.7912663311404042 16.0838480699875035 Ga
atom 14.9856894145458330 10.5312791387126765 5.5672281774008114 Ga
atom 8.1766797235741340 16.3680557296959357 0.0961542222861790 Ga
atom 8.2403419311941111 16.1922219280616453 10.7658740669968704 Ga
atom 8.3125196847423481 16.2643739883279359 5.5205602681054176 Ga
atom 9.8940004284341665 13.3430813464881037 16.1365227949581787 Ga
atom 9.9184891563059896 13.3322435444250935 10.9028541523949336 Ga
atom 9.8862490599318900 13.5112067062306522 5.4918242583645744 Ga
atom 11.6805720984579153 10.5801273949146299 0.0782361488634041 Ga
atom 11.6138600153734757 10.4769419960855235 10.7307224403035431 Ga
atom 11.7694114274214314 10.4703475378750142 5.4500589712258831 Ga
atom 13.3010360116125490 7.6870927479744795 0.0052022363353275 Ga
atom 13.1521817523374462 7.5788890381434699 10.8094855233642821 Ga
atom 14.9174901841680008 16.3075971849334707 16.1436088698813798 Ga
atom 14.8513830279471524 16.3152428558453622 10.9859002351324424 Ga
atom 15.0537833967579662 16.2802025771159435 5.4014077935866691 Ga
atom 11.5631337023573835 16.2007193842869590 16.1520272088524592 Ga
atom 11.6131160877218029 16.2631874545277277 10.8184150214928092 Ga
atom 11.6559808074544708 16.2611614954585058 5.3793845707983818 Ga
atom 13.2516067541103340 13.4272342774384548 0.0704583715141043 Ga
atom 13.3849087844816488 13.4325847559437879 10.7764262175917018 Ga
atom 13.3494635778211528 13.5355065775677126 5.3343535572234355 Ga
atom 14.8743438037793041 10.6048100922325101 16.0817375763950920 Ga
atom 15.0456665753215759 10.4356371878929632 10.7566803276311642 Ga
atom 8.4321627106248673 10.4581377506986168 10.7671819435106890 Ga
atom 8.3598275256378276 10.5236308464858670 5.3180406977147410 Ga
atom 9.9644745545443243 7.7860045742568849 16.0029141671188491 Ga
atom 9.8528690344935281 7.6335542660193410 10.8251592261669636 Ga
atom 9.9564164764257832 7.5818144155707747 5.3710578780392684 Ga
atom 11.6638557413549808 4.6003482848989332 16.1764219061019254 Ga
atom 11.5892531197467079 4.7888125643940551 10.8932155644932962 Ga
atom 11.5218312520235848 4.6917527792613178 5.2557211097004624 Ga
atom 13.2362549130656149 1.8574008721309319 0.0071548381289983 Ga
atom 13.1846361162590426 1.8366306650723827 10.6843434098754351 Ga
atom 13.1075966094795273 1.9617613431559300 5.3732012908987752 Ga
atom 13.2595371745856578 7.5765421924802556 5.3308114707599330 Ga
atom 14.9525036401128677 4.9409117501163573 16.0623708552759403 Ga
atom 14.7622450810875794 4.8349754473913347 10.8568515502047447 Ga
atom 14.8041004901855988 4.8113936926924978 5.4420301599642125 Ga
atom 4.8997988648554092 16.2998401244695899 0.1998397239387172 Ga
atom 4.8702420818574383 16.3137289302640873 10.8206160208041453 Ga
atom 8.3489437355958387 10.6817911845115265 0.0789744069157412 Ga
atom 6.6397399663103016 13.3586862364498664 5.4679583978991335 Ga
atom 6.6714034935613329 13.3973258657024790 10.8096573567554657 Ga
atom 6.5778213520044977 13.3685849761716433 16.1702641318927292 Ga
atom 4.9486361159544456 16.2899703015737245 5.3734822681082361 Ga
atom 3.4867604915872263 9.6108489909168124 10.0400993890055403 N
atom 3.3763680288310547 9.7025333706416017 15.4346448607984073 N
atom 1.4755453497580253 12.4439106391150496 4.6582440974668700 N
atom 1.6347884551063505 12.4707604765008551 10.1269152215624132 N
atom 1.5834977039209690 12.3248896754621420 15.5393117109338661 N
atom 0.0324060613505069 15.2274735850778864 4.7827543059645432 N
atom 3.1833537540119852 9.4684832967364940 4.6430831488072251 N
atom 4.9121146992740758 6.8274277913159374 15.4750163869077522 N
atom 4.9454495816231407 6.6109554260797250 10.1315466367187437 N
atom 4.9264273619477983 6.6738999391101057 4.6706594741393994 N
atom 6.7086155765802395 4.0063110934686490 15.5347549869814827 N
atom 6.6286517414262294 3.6613725965557742 10.1076925303711036 N
atom 8.2195345635854853 6.8514959175601593 15.3279351571527194 N
atom 8.2682896808587873 6.6621258173431261 10.0900291490255025 N
atom 8.2552851588673732 6.5982703577759327 4.6778467443171197 N
atom 9.8654790889291260 3.7743866931341921 15.4610446662149936 N
atom 9.9487989524345473 3.8891788421373343 10.2378173579079377 N
atom 9.9324112768828900 3.7303504997335013 4.6449233266447889 N
atom 11.6933252073433831 0.9017382729284668 15.4673695213179840 N
atom 11.5998997815044298 0.9891562391309930 10.0993572284470723 N
atom 11.6658905642556761 1.0157388486114047 4.8217452623462567 N
atom 0.0916781594205268 15.3271135164902965 15.5588780820410992 N
atom 16.4705885917208690 15.4208443195690634 10.2704666909180808 N
atom 3.3026057638843125 3.7496893911048361 10.0798636754667541 N
atom 3.3015294711592729 3.7487198336119705 4.7551531975228265 N
atom 4.8856456084800506 0.9723226015327285 15.5570628419827095 N
atom 4.9688454872514276 0.9802541625474442 9.9948809305234896 N
atom 4.9827071759331858 0.9057727584423214 4.7811982324227573 N
atom 0.0190045622787844 3.9999512382746270 15.4641019321171473 N
atom 16.5087470398843692 3.9441784399287418 10.2113719012260749 N
atom 16.4658128243551189 3.8858350418427339 4.7452846922931364 N
atom 1.5821369984463101 1.1295896218688644 15.6374730612216943 N
atom 1.5161877380515330 0.9080360265707369 10.1796457483967284 N
atom 1.4986856093972980 1.0814146167464636 4.6567657490790753 N
atom 6.5888459930469780 3.8464174135823579 4.6388940023577234 N
atom 8.2140841932924857 0.9853955213011414 15.4905548622972447 N
atom 8.2661607813778559 0.8775041677606064 10.2063507069639119 N
atom 8.3613078269722116 0.9186687419910542 4.7846594018851016 N
atom 0.0257397245876902 9.5726774950278291 15.3653861639094895 N
atom 0.0299576424637536 9.4791409953240109 10.1269800508472443 N
atom 16.5834561572812760 9.5512893577349356 4.6466389191028359 N
atom 1.6616873236815330 6.7208903412985812 15.3803287619787987 N
atom 1.6431613510068710 6.8034166053563272 10.1177516026309942 N
atom 1.6396657769084959 6.6292860085937502 4.7535148537088849 N
atom 3.1121562740592310 3.9005492585934074 15.5197724234739169 N
atom 11.5438629425822477 12.4187401657847740 4.7486074792914756 N
atom 13.2942824439079299 9.5515465301049964 15.3122820320776878 N
atom 13.4290336902812779 9.5754367352743799 10.0328949371882086 N
atom 13.3261938870073937 9.5151253540814587 4.6811765705579438 N
atom 14.8206912128314308 6.8228068439977720 15.3872554155730406 N
atom 14.8645327756031929 6.7983024804428682 10.1224016525075946 N
atom 14.9956584425548609 6.6370707259180701 4.7986540674669866 N
atom 6.5512547877405050 15.2722575304733184 15.6194322316237049 N
atom 6.6193361738735943 15.3558257002620380 10.2697889637278585 N
atom 6.5912844183764738 15.2563230994333185 4.8463530975131430 N
atom 8.2500973535968125 12.4899205721420827 15.5701324281240954 N
atom 8.3959853370697317 12.4859257179967447 10.0664715329958874 N
atom 13.2313122412266040 15.2272793619446887 15.5522995755774769 N
atom 13.2488271298227467 15.3673368695353219 10.0959639312996217 N
atom 13.3894945953151243 15.3470442914415948 4.8205209093747055 N
atom 14.9080973131084829 12.5809139284167326 15.4850558808819745 N
atom 15.0651055024168290 12.5022546783486437 10.1427468525052618 N
atom 15.0230442769085677 12.3989017628656111 4.6809511210459194 N
atom 9.8082353295790945 15.2568206021617154 15.5551766606361301 N
atom 9.9506645554869912 15.3801962932803669 10.2572505782955812 N
atom 10.0091735261715336 15.3762639489297275 4.7613157619129591 N
atom 11.5841183148306843 12.5402429290721820 15.5144056215238457 N
atom 11.4835537299266726 12.3819195952430814 10.1490778773575521 N
atom 14.9718486045814103 0.9536024736226149 10.1678502228822349 N
atom 14.8809847597368190 1.0415695958384670 4.5066715815166374 N
atom 3.2739840142768939 15.3150686780837511 15.6228805607474310 N
atom 3.1840958386273761 15.3261392267509429 10.0888209831614173 N
atom 3.3111694099162094 15.2564015255854546 4.7663373106845821 N
atom 5.0069941286806312 12.4818084682612405 15.3536425765876832 N
atom 5.0205302252548742 12.4681156776454305 10.1579535604651809 N
atom 4.8844158529468995 12.4474827327160131 4.7495213889136396 N
atom 6.7455046269316039 9.7083361852589096 15.4576517114998637 N
atom 6.6134331523796064 9.6572419863343342 10.1824502388469469 N
atom 6.5615962471944753 9.6094312107278164 4.7198583829138965 N
atom 8.2392688520976201 12.4957551597554932 4.7891362855498674 N
atom 9.9562531708733744 9.6521172193683462 15.5296808429410209 N
atom 10.0654521912733728 9.4621964782124106 10.0687111507435869 N
atom 10.1296730035903231 9.5506084914110847 4.7824791191682925 N
atom 11.4650318195523173 6.6775388326935099 15.4796528640959963 N
atom 11.6219226087070044 6.5789929670939751 10.1717981508779314 N
atom 11.5843916847553583 6.6192406457885262 4.6196976522306139 N
atom 13.4610444976646022 3.8210135548831921 15.4245226560613080 N
atom 13.2156010546506408 3.7822492492841064 10.0936248840878253 N
atom 13.2933418826974545 3.8167606530486431 4.5836465536883422 N
atom 14.8976461761488856 0.9797945512941013 15.5804972682394727 N
atom 6.6426667192276208 7.5775625539475264 2.0546792027650449 N
atom 8.3126588895332443 4.7964686792556339 12.8078290034769129 N
atom 8.2607783685147673 4.8002560563127448 7.3990471326369658 N
atom 8.2463524391292289 4.8640840466897943 1.9170884109043527 N
atom 9.9920187523990105 1.9186667090607283 12.8730329737425908 N
atom 10.0057202589366359 2.0187752202300548 7.5145387193649089 N
atom 9.9197617652774603 1.9416741628399874 2.0836127532652831 N
atom 0.1127230212102267 13.4298251123923951 12.8357611127168099 N
atom 0.0179254192333843 13.4716942826462631 7.4506257953456743 N
atom 16.5452847146195730 13.2724160716034163 1.9756421375955537 N
atom 1.8673738763554260 10.5836339641014234 12.9090316838474628 N
atom 1.6760306896089785 10.6896986465259989 7.2638385776290066 N
atom 1.7700072885958424 16.3107491858888025 12.9745636323756059 N
atom 1.6115745055298312 16.3120756168383139 7.3972835133799331 N
atom 1.6709436263692838 16.1834147548249128 2.1163642591353002 N
atom 3.3901743256809351 13.4242737033925810 12.7871401710796473 N
atom 3.1896730420872839 13.3779314155868363 7.4991661550541791 N
atom 3.2271155167128844 13.4264468170796114 2.0245137243779179 N
atom 5.1171867506844313 10.5367509410012605 12.8033472085529247 N
atom 4.9716154613819974 10.5434473363657961 7.3935562794234304 N
atom 5.0497089918877478 10.3644478616823488 2.0966342759794228 N
atom 6.7428499537406914 7.7186813494748847 12.7040827421050686 N
atom 6.6350183157791971 7.5322817390786234 7.5239210226314421 N
atom 16.5187768507743726 7.5703490946340137 7.3487116412606373 N
atom 16.5762033645858438 7.6056769303183049 1.9863903079956362 N
atom 1.6244285551850013 4.7181575537813831 12.7392016757058713 N
atom 1.6616197286103664 4.8440634152510640 7.4221108750855560 N
atom 1.6566219053388682 4.7211246608760389 2.0576678217482711 N
atom 3.2142530801061020 1.9395455027108093 12.7082155093960196 N
atom 3.3787101972756157 1.9099285516099425 7.4914681164500170 N
atom 3.1832429323103213 1.9521040165124539 2.0557283385401361 N
atom 16.5425586558216864 1.9035052828878185 12.8586750475419738 N
atom 0.0209613479643377 2.0648288343278285 7.4544276613153295 N
atom 0.1303445097106419 1.8985761348458934 2.0608296018393624 N
atom 1.6303885942385383 10.3875081245144631 2.0633038446745777 N
atom 3.4839016853065230 7.7666963840087222 12.8220645854529263 N
atom 3.2911475647398780 7.7384184744261884 7.5211037961921150 N
atom 3.3523926296590254 7.6289367861235382 2.0297168391285498 N
atom 4.9857471449604249 4.7648643392637515 12.8534944095873058 N
atom 5.0796239292046890 4.9480903525602242 7.5176755311626859 N
atom 4.8624702499515964 4.7811057059410746 1.8993578057923075 N
atom 6.5040061290105493 1.9617433509032891 12.9067762800296073 N
atom 6.7633629245143121 1.8085752030376259 7.4310870666627489 N
atom 6.5540423917830495 1.9768743847395387 2.1036205048912824 N
atom 0.1155275984756103 7.6277832456518597 12.8723099447737948 N
atom 14.9951368941227869 10.5891332165366094 1.8570658443616430 N
atom 8.2629733177056650 16.2604519114191248 12.7949860243147846 N
atom 8.3464859507948148 16.1810357941940808 7.5267731914194647 N
atom 8.1690554055410765 16.3270745532107462 2.0628228626940066 N
atom 9.9508521813594921 13.4419242993310633 12.8364523730111006 N
atom 10.0485576124270679 13.3457768146024591 7.5255426775489047 N
atom 9.9404615587627205 13.3516830179701138 2.0473643004399995 N
atom 11.6858842289211768 10.4974353831168195 12.8174465567562539 N
atom 11.6333761353885077 10.4538304705382199 7.3344739383172399 N
atom 11.7450444204035627 10.4406211717114985 2.0672906783394156 N
atom 13.3523956201990224 7.7701867993417579 12.7616537877217748 N
atom 13.2412113712269299 7.6389967103436023 7.4293711374120033 N
atom 15.0418561125726615 16.3454720889264351 12.9635389915402968 N
atom 14.9721793313025859 16.2129945958266610 7.4151855155956223 N
atom 15.0757527476091635 16.2789349896841529 2.1243117568155179 N
atom 11.6877918154877598 16.4004956218124498 12.9052797057553139 N
atom 11.5366478420113179 16.2392869410492899 7.4240317668008142 N
atom 11.5131430855076626 16.1807366891657054 2.0706136933593573 N
atom 13.3566702565535511 13.4915691109483546 12.7906860028229641 N
atom 13.1908185372549625 13.3582385054735706 7.3201304492909358 N
atom 13.3032625585021798 13.4955461891337976 2.0086419394786135 N
atom 15.0814115971651788 10.5562051507494701 12.7021684817382940 N
atom 15.0442225153284213 10.6252441773151851 7.5374869638817241 N
atom 8.3947328361422571 10.4996649962757918 7.4074210301923209 N
atom 8.2199154363551710 10.4900691710419327 2.1134347151651638 N
atom 9.9741786358232964 7.6420419779516138 12.9501066140510925 N
atom 10.0051856047590384 7.6025216234189035 7.4017991027576926 N
atom 10.0031210350627493 7.6145088650136445 1.9274768807165510 N
atom 11.6627624050349041 4.7975162564702689 12.8900574600420370 N
atom 11.5744133540568157 4.7836616445827680 7.2935655708617064 N
atom 11.6011152434604625 4.7496426939181413 1.9186571157015126 N
atom 13.1161028609400372 1.8935749951633079 12.6746171862169366 N
atom 13.2456043482842318 1.9062405547759911 7.3024788450587526 N
atom 13.2782516843941618 1.9399940035333363 2.0407163235891486 N
atom 13.3783926723007802 7.7738237130978689 1.9958719416884534 N
atom 14.9096886877350716 4.8055135408714857 12.8856174265122370 N
atom 14.8072819432057017 4.8111280103978116 7.5490463082030184 N
atom 14.8188726149478143 4.8004079166691227 1.8916793375487369 N
atom 4.9852971683788319 16.2818414239138995 12.8983916782224135 N
atom 5.1389804779220665 16.2903457521289532 7.4421340987379141 N
atom 4.9030300093633601 16.4029188192242685 2.0632697589079552 N
atom 6.6859563318905835 13.4309983613275499 12.8674760900823753 N
atom 6.6470946478320396 13.2659171214787115 7.4635941720483885 N
atom 6.5119728241836388 13.3422929262853511 2.0581634152993278 N
atom 8.3261551489206020 10.6204165663922190 12.8856719893015619 N
