#===============================================================================
# Created using the Atomic Simulation Environment (ASE)

# Thu May 11 08:59:14 2023

#=======================================================
lattice_vector 15.6273739999999997 0.0000000000000000 0.0000000000000000 
lattice_vector 0.0000000000000000 16.2404434541285205 0.0000000000000000 
lattice_vector 0.0000000000000000 0.0000000000000000 15.2445761999999903 
atom 15.6000649792692911 14.4419636306893029 2.6025865185405164 Ga
atom 1.5226111830026867 11.6592892837384809 12.7272583853680974 Ga
atom 1.5681145981346145 11.7050941363165126 7.5890692515678415 Ga
atom 1.6119001452541042 11.7122037514340569 2.7117162679314162 Ga
atom 3.1896725895648537 8.9704019002435444 12.9694014257431967 Ga
atom 3.0795788947115592 9.1602573953086104 7.6475184917438028 Ga
atom 3.1074728190412131 9.0296133022277640 2.5386821624924458 Ga
atom 4.8182879082981893 6.3611850211798755 12.8185776730961631 Ga
atom 4.5842269111987486 6.2672767660889850 7.6807242320841196 Ga
atom 4.5726108526014126 6.4209868627287614 2.5581179494860504 Ga
atom 6.3289571603132186 3.6464983294889040 12.8155106948258215 Ga
atom 6.2753946313676314 3.5689020011433037 7.5953256221150136 Ga
atom 7.8554293247723059 6.2677978785842408 12.5413802862240615 Ga
atom 7.6673557279369824 6.3971147425519641 7.6487708293019150 Ga
atom 7.7899604632944266 6.4093424224888569 2.5579023928711879 Ga
atom 9.3622279288670054 3.5106357452137398 12.5551025841859030 Ga
atom 9.2383388745491377 3.6160153019952253 7.6818423567571035 Ga
atom 9.3892708054063494 3.4592964404807205 2.6154136986847929 Ga
atom 10.9375077291868372 0.9185876362380703 12.6255911650965498 Ga
atom 10.8482586884096950 0.8165410728622785 7.6950709550790464 Ga
atom 10.9312475182860194 0.8316125824519163 2.6876797880554153 Ga
atom 0.0291155309712344 14.3099077799507146 12.7806814191169238 Ga
atom 15.5189567035073370 14.3944901899896145 7.4884760449311454 Ga
atom 3.2423838096185911 3.5773895290738187 7.4001154161285854 Ga
atom 3.1979755203313647 3.7354050884934153 2.5318370266763441 Ga
atom 4.6493993493448453 0.8329542441341820 12.7144844040006433 Ga
atom 4.6763693578156804 0.8876651190672581 7.5634561111951308 Ga
atom 4.6188010024036146 0.8683837394252010 2.5560247614530236 Ga
atom 0.1026831661126171 3.4945584475874480 12.7134146628724611 Ga
atom 0.0341118231658469 3.6881370967564449 7.5875470629328801 Ga
atom 0.0350078769281457 3.6177695021163809 2.4723939328549922 Ga
atom 1.5794385893386098 0.9250147663241070 12.7421075476666239 Ga
atom 1.5764597131950897 0.8980719140944337 7.5592045478756020 Ga
atom 1.5522393630328735 1.0803234440440297 2.5381524451111379 Ga
atom 6.2478937120844273 3.6591377690142690 2.4241866798489125 Ga
atom 7.7937435401415796 0.9726380976904409 12.8308357071259600 Ga
atom 7.7063379950329018 0.8667676055808735 7.5385080580122450 Ga
atom 7.8044082926765173 1.0473746301048366 2.5516089058715465 Ga
atom 0.0830347824877453 8.9177790487233608 12.6325856330149335 Ga
atom 15.5795974744733936 8.9936729317562190 7.6358446890836174 Ga
atom 0.1225280804994568 8.9618016387617558 2.5606750940413763 Ga
atom 1.6388712844837485 6.2684769049554179 12.5371159219462420 Ga
atom 1.5602327577060719 6.4241328707878482 7.6608024547989677 Ga
atom 1.5366172017983537 6.2801115850956295 2.5936203437723577 Ga
atom 3.1476513414989324 3.4638754431737264 12.6985090409941517 Ga
atom 10.9231511611196126 11.6802470141774055 2.5228306217418797 Ga
atom 12.4812305575797939 8.9948525674915381 12.6006058561035097 Ga
atom 12.4507654686515501 8.9057786291150940 7.5563563544161543 Ga
atom 12.6851668321967388 9.0438977598247643 2.5438544528366860 Ga
atom 14.0313838460308311 6.3226841357067878 12.8426468542514485 Ga
atom 14.0177784667570151 6.4159661027392811 7.6891131882657788 Ga
atom 14.0298907281088034 6.2329934057423060 2.4525257857219787 Ga
atom 6.1813777609082212 14.3249061432943652 12.6099009121597501 Ga
atom 6.1036026347106844 14.4782000520499867 7.6390965243683997 Ga
atom 6.2736405880742323 14.4451196292822726 2.3701058690917307 Ga
atom 7.8108717380825317 11.7282029596287369 12.6173167770159314 Ga
atom 7.8857119676999563 11.6941644039334047 7.5598199105593809 Ga
atom 12.6242757476179364 14.5505767903800063 12.7589687897407416 Ga
atom 12.6546292953175605 14.4597935232511325 7.6652687845681005 Ga
atom 12.3981752052550345 14.4356684756542712 2.4765516349343888 Ga
atom 14.0120162313615158 11.7364438158511444 12.8329612595401503 Ga
atom 14.0954772807465840 11.7288403988431718 7.6515409419862070 Ga
atom 14.2034808099767176 11.8221803197979280 2.4960936306667416 Ga
atom 9.3425503214650085 14.4401590732323513 12.7432958712824185 Ga
atom 9.3414401727226668 14.3819667714794921 7.6789491583049223 Ga
atom 9.2353207054286948 14.4017091269795916 2.4871026594227805 Ga
atom 11.0154193378845484 11.8079966163408567 12.6758105499876876 Ga
atom 11.0481196114262072 11.9158808642397194 7.6531147816786733 Ga
atom 13.9272939076171092 0.9253907287477435 7.4185330152404818 Ga
atom 13.9908948208346722 0.9026679567976214 2.6999516832377704 Ga
atom 2.9909464991284445 14.3357114548529871 12.6430774784371920 Ga
atom 2.9998882053086624 14.4255396729762495 7.6774180521139419 Ga
atom 3.1530167847645494 14.4155024942370495 2.5467385739763988 Ga
atom 4.6400202041951220 11.7079205213138113 12.8141855149681341 Ga
atom 4.7681013305119464 11.5423912340654713 7.6344313099761294 Ga
atom 4.7646749781449138 11.8154237786311409 2.5634726415744806 Ga
atom 6.2981896922087364 9.0982574720368738 12.7040974614490523 Ga
atom 6.3302602870450047 8.9754277074295956 7.5940522824090095 Ga
atom 6.2615115542393296 9.0362325208225229 2.5635926581759301 Ga
atom 7.7688397321918901 11.7442143604165672 2.5496960523927172 Ga
atom 9.2887538073817115 8.9951464305069493 12.6961775000122135 Ga
atom 9.3595275296527287 8.9620585438449876 7.6268202038839066 Ga
atom 9.5524794688937877 9.0205859174678693 2.6063481988871553 Ga
atom 11.0812630648068300 6.3227996181026898 12.6921740238677003 Ga
atom 10.9195449335603403 6.3849129187374771 7.5401096293445375 Ga
atom 10.9249285557527251 6.0991984434048403 2.5255415376924897 Ga
atom 12.4050948024051433 3.5755977747037169 12.7645267941649188 Ga
atom 12.3746895809531061 3.7658874102683675 7.7711353294616758 Ga
atom 12.4982255855781670 3.5237439656121672 2.4913325404401188 Ga
atom 14.1358008477034378 0.7880973951220296 12.7527861607132245 Ga
atom 6.1677995519922462 7.2308378257854029 5.0338941653451554 Ga
atom 7.7232399982821134 4.4603808286016831 15.2042727108438331 Ga
atom 7.6811682398769259 4.6312482141214861 10.1303992249278014 Ga
atom 7.8220491446798386 4.6093384586812993 5.0649605755269853 Ga
atom 9.3736042723694606 1.7716627492855685 15.1535800844499065 Ga
atom 9.3410866117807849 1.7991032261075597 10.0592902166313305 Ga
atom 9.2968982334394674 1.7815802021817475 5.1569043141638229 Ga
atom 15.5961714599401216 12.6594255528108572 0.0967477521228766 Ga
atom 15.5384801258106879 12.6495620226844121 10.1243729122909762 Ga
atom 15.5819418289700344 12.7525787256304977 5.1605357123856441 Ga
atom 1.6893053485382277 9.9460390699512775 0.1213920512027650 Ga
atom 1.5881687260240005 9.7606113895639126 10.3186167478242723 Ga
atom 1.4942117769299197 15.3556481022731433 0.0495452672564647 Ga
atom 1.4932361473813747 15.2726492863328840 10.2315284664230361 Ga
atom 1.3753075486637145 15.4552365109791925 4.9733816132274784 Ga
atom 3.0419283770304246 12.6760161724938314 0.0422859527872926 Ga
atom 3.0060080025752409 12.4956659071432714 10.0631058158759501 Ga
atom 3.0885441251313503 12.6837939459801099 5.2132815575038558 Ga
atom 4.8649591065392706 10.0291081817446504 0.1554354371411388 Ga
atom 4.7904663071733333 9.8827061556350788 10.1721444628809667 Ga
atom 4.7303256794214299 9.9916699478326496 5.0354982517764117 Ga
atom 6.4046393665062000 7.2809243486291999 15.0774486045503640 Ga
atom 6.2174029250993499 7.2527507209452118 10.1418940746107040 Ga
atom 15.5825277927192474 7.2082406620745934 10.1481050368428942 Ga
atom 15.5883329766396503 7.1809000613495426 5.1056472582826284 Ga
atom 1.4985277652368016 4.5651864247605038 0.1315723587110857 Ga
atom 1.5016682123342557 4.4179677521422018 10.0508588378427177 Ga
atom 1.5147842724654230 4.6506210485527912 4.9574513644002520 Ga
atom 3.2195135916493660 1.8721839384336110 15.2317931534355449 Ga
atom 3.1701270502900858 1.7750165673691896 10.0875262690000689 Ga
atom 3.0620221231605202 1.7919795582318987 5.0388558170492095 Ga
atom 0.0790118571888892 1.8771096443039874 0.0313201325455379 Ga
atom 0.0053855820698050 1.8122980672988203 10.0938869779842726 Ga
atom 0.0633068460087048 1.8842494579848412 5.1298788942352687 Ga
atom 1.5873139402500609 10.0564630530985610 5.1346352724425071 Ga
atom 3.0215808934113566 7.1302703786019181 0.0841321146506630 Ga
atom 3.1745170927015867 7.2502691861957596 10.2363168905171804 Ga
atom 3.0499034033130705 7.2774856493986784 5.3460480067696095 Ga
atom 4.6925749212654404 4.6599436993388688 0.0449302676380990 Ga
atom 4.7717845479157228 4.5406349955034377 10.2358343388370585 Ga
atom 4.7254459178491688 4.5762834178197531 5.0356426269266858 Ga
atom 6.1748527997651399 1.9348022652121262 0.0346029488062860 Ga
atom 6.2084227213235064 1.8891799226967068 10.1645533126204199 Ga
atom 6.3617168804016719 1.7087318787463257 4.9350537969174173 Ga
atom 0.0276707856337218 7.2246275072909443 0.0750609889932521 Ga
atom 14.0969917502385975 9.8928762302374782 5.0130885004471626 Ga
atom 7.7021210981436621 15.2925200544655748 15.1190715038421342 Ga
atom 7.8902126894894593 15.2561711340255108 10.1868054385846634 Ga
atom 7.8507379378887805 15.2687648862172853 5.1397943938489306 Ga
atom 9.3175816577235118 12.6692840388978745 15.0662736042022445 Ga
atom 9.3952053223128544 12.7723121543306544 10.1139422405653843 Ga
atom 9.5152377805202004 12.6316209015103560 5.0452055543727381 Ga
atom 11.1155287774056273 9.8912785087510109 15.1101056240457012 Ga
atom 10.9028421272012395 9.8683804203582550 10.0747152859218048 Ga
atom 10.9398409385939885 9.9406037036540393 5.1933114323642027 Ga
atom 12.5528784404270954 7.0914993007702307 15.1826363118041616 Ga
atom 12.5792920363633982 7.1361267940729300 10.0289475802338455 Ga
atom 14.0616339818299156 15.3826860039256701 0.0807587534405600 Ga
atom 14.0234457094357978 15.3947238382799103 10.0744674315480829 Ga
atom 13.8504388749927347 15.5800959044665621 5.0013805820143844 Ga
atom 10.9296503999573300 15.4497944403659133 15.2165055367191133 Ga
atom 11.0552290215394819 15.2923346083688720 10.1847899609538679 Ga
atom 10.9136573579785772 15.2721100402492524 5.1341172426943711 Ga
atom 12.4251842807369055 12.8487072288356554 0.0590600656233845 Ga
atom 12.4923567457730798 12.5747484452410223 10.2437474251462586 Ga
atom 12.5176429847722694 12.5339949970010114 5.0188058510125524 Ga
atom 14.0911512174666846 9.8061091198344226 0.0804258556568226 Ga
atom 14.0736944149030077 9.8625667235876247 10.2176833432810437 Ga
atom 7.7666319835932311 9.9793943927918907 10.0352027174092804 Ga
atom 7.8917800789613253 10.0166448035389504 5.0679737941809275 Ga
atom 9.5317051668009487 7.1584428085329002 15.1664560062040454 Ga
atom 9.4262152589008057 7.1448239049702309 10.1314251144665146 Ga
atom 9.4037531022043286 7.2079917682384149 5.1965658062742932 Ga
atom 11.0119956587189218 4.2745908897714688 15.0638051812676697 Ga
atom 10.8160240416882321 4.4858923150713652 10.2648498356634121 Ga
atom 10.9310239992610594 4.5074451185228428 5.0976676007561954 Ga
atom 12.4682401442988180 1.7693866404776815 15.1803212987873106 Ga
atom 12.5726792960430256 1.9394169924920768 10.1553395775322368 Ga
atom 12.3964234868260643 1.9237395525634213 5.1504211373859938 Ga
atom 12.5847487499521229 7.2680923484636581 4.9953354322338894 Ga
atom 14.0864140675342853 4.5495114786030975 15.2356494380298475 Ga
atom 13.9960099952185555 4.5366604571429701 10.2259665940777573 Ga
atom 13.9512940798528593 4.4923962123981580 5.1696021016024689 Ga
atom 4.6384515962692507 15.2720005446313607 15.1791498851499824 Ga
atom 4.6950413187987143 15.2542934297988193 10.2462432752733630 Ga
atom 8.0283719270223575 9.9114889861089015 0.1490545916787064 Ga
atom 6.2244386697659531 12.6203613061240016 5.1128143740026761 Ga
atom 6.2589248387055409 12.5550606211566809 10.1523417921850925 Ga
atom 6.3032379965252874 12.6067517652945629 15.2270889603559070 Ga
atom 4.6520799479008339 15.2058554825108985 5.0131978894438447 Ga
atom 3.2141702094332327 9.1235721713793207 9.5872282200816450 N
atom 3.2780068216240146 8.9946891587180904 14.7866112064457607 N
atom 1.5185286075648599 11.9157238373322087 4.5300024827195564 N
atom 1.4624471268288908 11.5775137729051476 9.5282658204298105 N
atom 1.6915126313436268 11.6503124891537801 14.5676553479784250 N
atom 15.4831233332434319 14.4446614948039826 4.4662042079943891 N
atom 3.1950977013778621 8.9879515558987997 4.4383491314990691 N
atom 4.7270001755234885 6.3964256439855696 14.6502572329628240 N
atom 4.6116676279918858 6.3840700607738832 9.5736894323789929 N
atom 4.6677847670174666 6.4407824544034780 4.4611649962142597 N
atom 6.1863460843901183 3.6091470067716021 14.6061618281987275 N
atom 6.1392315605132399 3.7085638958444451 9.3763990838204023 N
atom 7.9842238383756268 6.3043912943153435 14.6188680219002141 N
atom 7.8041604234471356 6.4769857639171846 9.6399169628957839 N
atom 7.9030909412593084 6.3381633001014475 4.4289011142115529 N
atom 9.2381162036209847 3.6075398363903415 14.4617984214358657 N
atom 9.3498518551047969 3.5447794717795369 9.6205272610031667 N
atom 9.2833535648980821 3.5387938120232869 4.4295385008789339 N
atom 11.0200972085888527 0.9326577495335598 14.5430385917919107 N
atom 10.9896797432130580 0.8470754708933916 9.5491076201644809 N
atom 10.8978705261861286 0.7770951550389137 4.6648845113480526 N
atom 15.5766344485180337 14.3421811515624320 14.7266682760808116 N
atom 15.6114647279974577 14.5284113181131591 9.4231237867396054 N
atom 3.1097621919913840 3.5589838072052715 9.4275173565568551 N
atom 3.2212922834181246 3.6798936739536305 4.4333998938619699 N
atom 4.7983806240662519 0.9428389213595955 14.6844073378530435 N
atom 4.8737065400799331 0.7570127091322177 9.5454323345448966 N
atom 4.6814190377396425 0.7472494031498703 4.4114154697837060 N
atom 15.5803701435258652 3.6353627073551928 14.6167521442857229 N
atom 0.0326009265323790 3.6039185838450103 9.4871826251171250 N
atom 0.0118169116409154 3.7210437308846758 4.5293882089613442 N
atom 1.5573229336541754 0.8858229053613084 14.6686656567121858 N
atom 1.6402379394065996 0.8627169387112563 9.4633562588038362 N
atom 1.4725207393735893 1.0312700733586846 4.3326219021551697 N
atom 6.2758593473868114 3.5765117842513141 4.3360155545716816 N
atom 7.7373703032987766 0.9831651065547806 14.6394128259842482 N
atom 7.8268205962166872 0.8304754360155184 9.6008972035109359 N
atom 7.9769168073482142 0.9428080664413628 4.5124706385341291 N
atom 0.0564915322185558 9.0598469377195698 14.5238797741938779 N
atom 0.0132602693210625 9.0388220396279717 9.6634685602500809 N
atom 0.0387643368176200 8.8264871236375786 4.4440090171379572 N
atom 1.5960719357811639 6.3572652023108684 14.5733724195119709 N
atom 1.6536576698482726 6.3118589202775617 9.5748262297745050 N
atom 1.5845570824908766 6.4774128031797424 4.5555093217834237 N
atom 3.1725417530655706 3.7518976952614009 14.4955497961542630 N
atom 10.9103915123438107 11.5093773779835420 4.4773089096862968 N
atom 12.6443179486478225 9.0056873361492009 14.6037893535379872 N
atom 12.5338888040308429 9.0201785310045075 9.3726030661555573 N
atom 12.4627226940715357 9.1374031732944321 4.4285515388132799 N
atom 14.1886865939021387 6.3556052820466480 14.6919586606301742 N
atom 14.1632188351602561 6.1922678726043614 9.5072116250664767 N
atom 14.0703647389290865 6.1289045499666965 4.3692460470579464 N
atom 6.1714839414209424 14.3005313987230043 14.5223950471540793 N
atom 6.2813955188563719 14.4541615583970451 9.4488784103273069 N
atom 6.3615575543525180 14.3601792534953265 4.4187399524681634 N
atom 7.7377873658250245 11.6466709428605029 14.5329107441135772 N
atom 7.8879676933453853 11.7890833485589805 9.4083890041071125 N
atom 12.4751305103697536 14.4525286028275755 14.6473090476273526 N
atom 12.6607504863672791 14.4146569850322681 9.5566246977485090 N
atom 12.4569459442295418 14.4812311255336983 4.4157594253179218 N
atom 14.0867188926864770 11.6504393257375742 14.7169792139802897 N
atom 14.0019734189204375 11.6579673788364762 9.6622673889515234 N
atom 14.0601266905107032 11.6940672748033734 4.4149332316946035 N
atom 9.3313870388112807 14.5885265718415091 14.5565795457587495 N
atom 9.4728093485185596 14.4673681327207984 9.5167043922729526 N
atom 9.3944269349021567 14.4177523064375315 4.4679179025280478 N
atom 10.9458392552260904 11.9056431725974488 14.6057853973220642 N
atom 10.9629697280659091 11.7131093928308818 9.4761151735945734 N
atom 14.0503512714981120 0.8821768318204614 9.3879857152714994 N
atom 14.0888478419479366 1.0900583758539091 4.5359788303799515 N
atom 3.0741578226311446 14.4106984078739835 14.6705083365441400 N
atom 3.0299321149979299 14.4475443171150921 9.5185725005530006 N
atom 2.9803352197419253 14.4408186794056483 4.3897436786170134 N
atom 4.8293277780696879 11.6641888850463200 14.5716599474195352 N
atom 4.5844753254657737 11.6180195351607800 9.4433346465187995 N
atom 4.5930012653974446 11.6954166577991980 4.5934913774618309 N
atom 6.4216526824128994 9.1810787956101638 14.6977353303837432 N
atom 6.2676537960414604 9.0047433474830658 9.4417992953446266 N
atom 6.3445123054655683 9.2021062690887128 4.5304748696152126 N
atom 7.7967162491843318 11.7343141024288329 4.4379305233875783 N
atom 9.4958880771780976 8.9141381427384747 14.5822918507980592 N
atom 9.3842545862350395 8.8755455022182730 9.4998179402132941 N
atom 9.3766821730399936 9.0030959594163971 4.5192944797014531 N
atom 11.0555047205264074 6.2019177106323520 14.5368940161939459 N
atom 11.0367005854575471 6.2874612773068357 9.5460840038598374 N
atom 10.9687240648962021 6.3765923778787279 4.5301517888464531 N
atom 12.5697669931294005 3.5865147525986916 14.6510595765847924 N
atom 12.4990304817011921 3.7235472568765871 9.6164484187111015 N
atom 12.5125472180790087 3.7589637262863964 4.4131456685307926 N
atom 14.1563800580060324 0.9289222639098779 14.7472785324143292 N
atom 6.2217676284426133 7.2842395323850626 1.7740015945921257 N
atom 7.7434162943644891 4.4498755616248458 12.0250189873678739 N
atom 7.7809464032528792 4.5814826414812311 6.8980015855796726 N
atom 7.9081660625206371 4.5150186111836588 1.9748609501264780 N
atom 9.2780147969293196 1.7436763624080900 12.0480031114041850 N
atom 9.3852484727859675 1.8403272966540325 7.0300059252184361 N
atom 9.4273568286142133 1.8053640620427618 1.8011546716531082 N
atom 0.0674823865625710 12.5780683180630959 12.1112329369805867 N
atom 15.5845062156647511 12.6332614075806244 7.0419990180097249 N
atom 0.1107391528101339 12.6675925394000899 1.9548661952764717 N
atom 1.6347965482907107 9.8459477932238730 12.1336425413467861 N
atom 1.5125113307749662 9.9511947018386415 7.0156941902149894 N
atom 1.5492083909737482 15.2576670383619444 12.1165422414836126 N
atom 1.4565658029891939 15.3158523568243226 6.8821460390679192 N
atom 1.4901999545960285 15.4960437545457932 1.8989921619927013 N
atom 3.0991449267530369 12.5263888822591962 12.1162627508674632 N
atom 3.1932972675802711 12.5784134391094575 7.0724011663810433 N
atom 3.0220983244459716 12.5372951039697771 1.9146085141229281 N
atom 4.6423419722179293 9.8923735820542369 12.0876261479215987 N
atom 4.6917397799957552 9.9001512294656262 7.0484036676417556 N
atom 4.6873274477086033 9.9388054013838296 1.9524538679031518 N
atom 6.2892244609622576 7.2965551494636314 12.1078094153462388 N
atom 6.2063847987875276 7.2601328472276503 6.9692389406878350 N
atom 15.5845188909037233 7.2810441313274135 7.1471564874705562 N
atom 15.4987892009814416 7.0839110155799352 1.9073832357674936 N
atom 1.6198494358706081 4.3980927284923315 12.0743022570912366 N
atom 1.6766949868612200 4.6037935091117843 6.8019464184747411 N
atom 1.6248743403100714 4.6059571793667970 1.8867098255790609 N
atom 3.1323922253459635 1.6737268079821082 12.0641487826046720 N
atom 3.2161057517027336 1.6325999331716232 6.8286181913993076 N
atom 3.1448363917963942 1.8106885076993611 1.9197428571578556 N
atom 0.1000820056013249 1.7654767492800227 12.1223096781074613 N
atom 0.0195407173272515 1.7570773269258577 7.0264611471508607 N
atom 15.6207816252440441 1.7937228051168648 1.9048067965063553 N
atom 1.6387335217534662 9.9248688385242385 2.0235370548747156 N
atom 3.1541419353938411 7.1964059204873783 12.1064512010754868 N
atom 3.1040622223715801 7.3251691022502170 7.0940554322064058 N
atom 3.0236476317842094 7.2791596439454489 1.8010544471131418 N
atom 4.7159339139402334 4.5473641807464409 12.0956950276195645 N
atom 4.7535452371983231 4.3936363172960382 6.8385097833104425 N
atom 4.6385471832390524 4.6094081461445002 1.9369184487950251 N
atom 6.1899032008553450 1.8388123956565157 12.0527836540428286 N
atom 6.1953864613978347 1.7245673581772285 6.8159520903563715 N
atom 6.2561892030987130 1.7681933115047896 1.8466718517195582 N
atom 15.5720027874741973 7.0264102089791445 12.0185290099338378 N
atom 14.2582829290714379 9.9904727796967165 1.9149557151590977 N
atom 7.7768966652126963 15.2959164328398067 12.1181618589183611 N
atom 7.7899822521783459 15.3126346484398752 7.0029530178808210 N
atom 7.8010627018394540 15.4521485648776959 1.8479791459846282 N
atom 9.4147729108407834 12.6324606634451815 11.9782301258769426 N
atom 9.3087485869425084 12.6357873116321500 6.9198832159184436 N
atom 9.3237633364478700 12.6290926193531536 1.7882885587439219 N
atom 10.9600806912746798 9.9237519157977392 12.0657667795845711 N
atom 10.9060084928474623 10.0069630379736392 7.0156042225306292 N
atom 11.1186470741915997 10.0318602750107129 1.9103619036120847 N
atom 12.5961362650068374 7.1789310499902550 11.9936241303546645 N
atom 12.4820369778115374 7.2219452365814503 6.9919668364251422 N
atom 14.1155551645176089 15.3723654661762836 11.9859022923833880 N
atom 13.9844097010446315 15.4163032224372554 6.8933019550522960 N
atom 13.9798333526786607 15.2963544707357908 2.0525090533265997 N
atom 11.0010943009616877 15.3124006714985939 12.1063918711141181 N
atom 10.9786545236693058 15.2489332617815165 7.0537184332779130 N
atom 10.8420081625153113 15.4029002909109209 1.9398030950667884 N
atom 12.5382588323131881 12.6745395517673032 12.1477335356786611 N
atom 12.6493133240255009 12.6912312146585649 7.0341854578111471 N
atom 12.5395679891396181 12.5702051465182052 1.9795368638969608 N
atom 14.0066962524998733 9.9081046067480703 12.1680856558422672 N
atom 14.0240748882555639 9.8828457390637663 6.9614439468377256 N
atom 7.9414307561964135 9.8970830050252410 7.0014413852460891 N
atom 7.8183356131500181 9.8852086502625269 1.8862627271736350 N
atom 9.4926215602696349 7.2101115234953470 12.0401535700528584 N
atom 9.2324033134030632 7.2595335009916129 6.9469428000505431 N
atom 9.4498271547062593 7.2713773522382041 1.9133162934691856 N
atom 10.9250799905044964 4.4592471686141524 12.0778713289715434 N
atom 10.9723977921984641 4.6102524377376257 7.0030508779778726 N
atom 10.9971741392090969 4.3438709401007509 1.7497534241067305 N
atom 12.4670495069923479 1.7948830175606614 12.1477207572340173 N
atom 12.3365934107087778 1.9263166047279789 7.0021353888619453 N
atom 12.5293893151348819 1.7543558543734550 1.9602395457252118 N
atom 12.4875086471464538 7.1819337530879581 1.9260005621479996 N
atom 14.1228723148422723 4.4758008563996770 12.1131234751428156 N
atom 13.9849176392924814 4.4115864079773681 7.0567650277359215 N
atom 14.0898182756734176 4.4633321670728234 2.0196877747005026 N
atom 4.5478264940157489 15.3119208691950703 12.1806929837929570 N
atom 4.5790791878552577 15.2722378403905719 6.9771242666077686 N
atom 4.5833459210427758 15.2715416110316546 1.8950091210562381 N
atom 6.1502784217718354 12.5785510757875798 12.0172730450972711 N
atom 6.3119851274271630 12.7599860273928325 7.0031438612484074 N
atom 6.2850030544948288 12.6561088719584607 1.8853355044994884 N
atom 7.8107025066067406 9.8477133746986336 11.9787094821850442 N
