#===============================================================================
# Created using the Atomic Simulation Environment (ASE)

# Thu May 11 09:00:34 2023

#=======================================================
lattice_vector 16.4884741999999989 0.0000000000000000 0.0000000000000000 
lattice_vector 0.0000000000000000 17.1353250322131494 0.0000000000000000 
lattice_vector 0.0000000000000000 0.0000000000000000 16.0845834599999904 
atom 16.3654162776023711 15.1394052392275711 2.7136269378194302 Ga
atom 1.6374036518867725 12.3930030296500036 13.3368247009667584 Ga
atom 1.8328009173389297 12.3761466274819121 8.1757512581889049 Ga
atom 1.8982292667422842 12.5418221521975948 2.7647518319963749 Ga
atom 3.2917702528606938 9.4769898177933172 13.4045750356966931 Ga
atom 3.3129372265205421 9.5662908861310143 7.9277001461554484 Ga
atom 3.4179981545030800 9.7047334178712461 2.7935854863168506 Ga
atom 4.8495527861438816 6.7209093683628218 13.5098891850353162 Ga
atom 4.9302293160500090 6.6910413454817697 8.1758037138337265 Ga
atom 4.8140056972353866 6.6824445301111313 2.7613455829743963 Ga
atom 6.5341730383353251 3.8282699069284947 13.4737565413734828 Ga
atom 6.6779784339589812 3.7641088894064230 7.9758565238909469 Ga
atom 8.2957969559628104 6.6095209485321220 13.2055123892597628 Ga
atom 8.1346457929142115 6.5178742667584810 7.9570295608441182 Ga
atom 8.2273046686467097 6.7818448092605008 2.5478663547375766 Ga
atom 9.9693759896895529 3.6967505952953603 13.5172439945496290 Ga
atom 9.9987304971554796 3.6132529244680138 8.0360942721746227 Ga
atom 9.8818970049424504 3.8461932048321956 2.5333275933788553 Ga
atom 11.5388713715717550 0.7789799578399471 13.3018875975521969 Ga
atom 11.5800800412616063 0.9196237839309515 7.9361723692113841 Ga
atom 11.5799922796545829 0.9733767795168708 2.6715001882987957 Ga
atom 16.3675898966941809 15.1296472762675425 13.6495759589463734 Ga
atom 16.4390869167905400 15.2418098346380937 7.9417738668516220 Ga
atom 3.3199016268488148 3.8374490773250014 8.0206033733572788 Ga
atom 3.2989500733140709 3.8461198375828198 2.7352440231608637 Ga
atom 5.0319249102759125 0.8603086669220843 13.4933905222846686 Ga
atom 4.7813543778623560 1.0664891495614659 8.0746704160047447 Ga
atom 4.8390241220874213 1.0204764409925164 2.7014155645687956 Ga
atom 16.3296433371335894 3.8383838931911498 13.4209775789807253 Ga
atom 0.0019357419903268 3.7628356517864288 7.9316705007140680 Ga
atom 16.3932246041113316 3.8350361922032481 2.7360837069854118 Ga
atom 1.4878183731143924 0.8978035121222739 13.5297540034091721 Ga
atom 1.6707129873744206 0.8521409624504895 8.1902149684435397 Ga
atom 1.5460387940430242 0.9780901662131348 2.9355674792659023 Ga
atom 6.5655826930766130 3.8199700618370573 2.7996696682391464 Ga
atom 8.1733305241360075 0.9839015034133509 13.5353282832142927 Ga
atom 8.2900350940698733 1.0057877673754190 8.0738814411253070 Ga
atom 8.2816300553073230 0.9041762856893805 2.7118693852597251 Ga
atom 16.4387677546650011 9.5894485039059933 13.5355326766336770 Ga
atom 0.0732717253750009 9.4718295410444977 8.0718815020195951 Ga
atom 0.1224313566649888 9.6266947931448232 2.5294170608737438 Ga
atom 1.5282904867487037 6.6666314000866107 13.3456614439049428 Ga
atom 1.6435834886101996 6.5963420428029229 8.0636319865632107 Ga
atom 1.7813841074989307 6.6062409850522981 2.8018612412936426 Ga
atom 3.1603997804627348 3.7664598147729080 13.3686651163454879 Ga
atom 11.5692758070052992 12.4075204400956416 2.6809897570904173 Ga
atom 13.1780884098615108 9.4673712235148351 13.3801310831329339 Ga
atom 13.2460712459252772 9.4964892650655717 8.0456935627531703 Ga
atom 13.2193080157984948 9.5096955746855745 2.7900080420809776 Ga
atom 14.7052400475479281 6.6253495119083192 13.4028093143633331 Ga
atom 14.9814016640051371 6.7216787239591502 7.9520919620440615 Ga
atom 14.8846276832252347 6.7666101987455267 2.7329012691690395 Ga
atom 6.4382881547080428 15.1815361159056810 13.4004943943999404 Ga
atom 6.4591029457589402 15.4011249884648134 8.0362372798838315 Ga
atom 6.6553854966243700 15.3783592200461392 2.6734695437126721 Ga
atom 8.2480052630491887 12.3252832773347993 13.3225829943811398 Ga
atom 8.2645522952479755 12.3245991250662499 8.0128628957126544 Ga
atom 13.2107331921771269 15.1460229420912249 13.3090903768630131 Ga
atom 13.1052908333130915 15.1061816773711897 7.9800085956145708 Ga
atom 13.1656964258380480 15.2041817724507968 2.3915762560477312 Ga
atom 14.9033126012424582 12.1799836124862573 13.4185562159907157 Ga
atom 15.0029356842512254 12.2405658965369106 8.0265530369527180 Ga
atom 14.9320324199980163 12.5586840367082342 2.6511794176529686 Ga
atom 9.8854315641760255 15.1643586026871144 13.3415543979788929 Ga
atom 9.8309038625420548 15.2458955217716188 8.0651849896438232 Ga
atom 9.9676309263248388 15.2964061482453566 2.6197078567535703 Ga
atom 11.5910561834981287 12.1610623258808843 13.3349243109365965 Ga
atom 11.4756754793955373 12.3392897181423606 8.1000338180949143 Ga
atom 14.7642031896162997 1.0036060368498487 7.9191661802398468 Ga
atom 14.8057381733067146 1.0284836246107472 2.4923901601887914 Ga
atom 3.1065173128219494 15.2407804131550968 13.4523162530463427 Ga
atom 3.2549856222879971 15.2910960306244981 8.0453750029059758 Ga
atom 3.3578507677591851 15.2232831406903042 2.8210641673606052 Ga
atom 4.9066211563267110 12.3713072054065485 13.4656619795106867 Ga
atom 5.0258303776422917 12.4241831077781892 8.0061231572052325 Ga
atom 5.1041072678868256 12.4800727053093095 2.8486131334416092 Ga
atom 6.6443723294220804 9.5065467026421491 13.5349955673279307 Ga
atom 6.6082555022955694 9.4456742699122653 7.8980298069239110 Ga
atom 6.6861671847636757 9.4945763628258177 2.8944907592397007 Ga
atom 8.2988917945337839 12.4661017891820691 2.6426783146790163 Ga
atom 9.8043536285079522 9.5875518893094807 13.4648835011545653 Ga
atom 9.8363684011401880 9.4057527724378964 7.9301134938619953 Ga
atom 9.9061373312408989 9.5283403417361843 2.6717155618968782 Ga
atom 11.5681906834488348 6.7138446192843428 13.2773793911234304 Ga
atom 11.5037545569085040 6.6909728392550809 8.0857881904536111 Ga
atom 11.5649137335635235 6.6488052766245334 2.6768416485269295 Ga
atom 13.0712580285533235 3.8139920664885389 13.3199960201895333 Ga
atom 13.2588620059185942 3.8944021176933359 8.0615018292167999 Ga
atom 13.1125647197496811 3.7281526938847862 2.6434004878434743 Ga
atom 14.7188017764616053 0.8141187643182245 13.2740470964807891 Ga
atom 6.6205429240544360 7.5624364319368587 5.4327848296078587 Ga
atom 8.2005195463466674 4.7653871051557024 15.9644381763924610 Ga
atom 8.3972446151725464 4.6648864496215161 10.7732234116533334 Ga
atom 8.1679377190646782 4.6793430495332400 5.3809414190099716 Ga
atom 9.8924405265574009 2.0250533869438878 0.0271502834455100 Ga
atom 10.0043776659816697 1.9071675222267570 10.7321455429681567 Ga
atom 9.8487788251485284 1.8517394980663027 5.3655838672076248 Ga
atom 16.4587815024186170 13.3229598858679310 0.0159528374827245 Ga
atom 0.0233256693934375 13.3229781736277051 10.7824465967784153 Ga
atom 16.4734253044159971 13.3658126333670761 5.4968713472272990 Ga
atom 1.7661122183551350 10.5094407054921728 15.9860544431526090 Ga
atom 1.6682679531344040 10.4280858357705153 10.7506739894572476 Ga
atom 1.6614106751887947 16.2142231894351028 16.0723182397406141 Ga
atom 1.5825087642032531 16.1378032855506532 10.7451398969068546 Ga
atom 1.5602009838342576 16.1186260216698507 5.3850539822677508 Ga
atom 3.2780501321267455 13.4354983443676979 0.0281826791379795 Ga
atom 3.3200719203556264 13.1852814127097862 10.8098055469397902 Ga
atom 3.3071341153820204 13.3121679080520554 5.3441312341349452 Ga
atom 5.0021201334056107 10.5750620335848264 0.0720391611956983 Ga
atom 5.0996412431819698 10.3785216927195183 10.7239347811248980 Ga
atom 5.1607590635899436 10.4816368792505070 5.4699520760523539 Ga
atom 6.4317140902978771 7.5633917970493947 16.0204553572638915 Ga
atom 6.5233668091391834 7.4873675568175235 10.7489699679806137 Ga
atom 0.1807131161462061 7.6169349293129489 10.8075954723826229 Ga
atom 0.0603839952173905 7.6842513877551584 5.2154177359969704 Ga
atom 1.6442202398918351 4.7320512604258820 0.1007203762222074 Ga
atom 1.6165306013572855 4.6723530902556876 10.6739252172320214 Ga
atom 1.6616849686306827 4.8222381156965630 5.4002434314850669 Ga
atom 3.3371151878455305 1.9007787061487111 0.0445771144475970 Ga
atom 3.2879096965205186 1.9843748045154328 10.9318427109396552 Ga
atom 3.3716400173918935 1.8771959521005501 5.4126174303145032 Ga
atom 16.4491315262450506 2.0425955520866892 16.0166657853693266 Ga
atom 16.4489162935617443 1.9793784514753392 10.5795321462501537 Ga
atom 0.0893511810517030 1.8898649491160697 5.3142334669823805 Ga
atom 1.6042059641610942 10.6624753489407453 5.3566340419943499 Ga
atom 3.2549853532053317 7.7923698778330337 0.1918074962238862 Ga
atom 3.3781657167859307 7.6406396820711073 10.6582268070809771 Ga
atom 3.3356204357179440 7.7796663532400432 5.3620191716153363 Ga
atom 4.9119629492358650 4.7131351483550441 0.0339298240296578 Ga
atom 5.0668670974154733 4.7796536891285353 10.7333702008627849 Ga
atom 4.7406701568177905 4.7519835600328584 5.4349160211976502 Ga
atom 6.6136832133884607 1.8442095040365463 0.1161270090037748 Ga
atom 6.5715138910496922 1.9679305497033288 10.8214166608398141 Ga
atom 6.6747314897421335 1.8944750270072837 5.4283133929734007 Ga
atom 16.4177024880724645 7.4521037362674996 0.0589427529425964 Ga
atom 14.9238590598055509 10.6573214147003732 5.3683626689324084 Ga
atom 8.2044521359609170 16.2258442075939620 15.9860302774495562 Ga
atom 8.1311524093497010 16.0933557491944157 10.7452143269267868 Ga
atom 8.2621009062840471 16.2569522618591229 5.4572374993565465 Ga
atom 9.9237153708801902 13.2048367786705878 15.9435677569251979 Ga
atom 9.9251201799675375 13.4041532616173473 10.6212373951906933 Ga
atom 9.8390734260346413 13.3254246998230066 5.4051692100726489 Ga
atom 11.6474744517648663 10.4746128311507949 0.0334374050990498 Ga
atom 11.5245224865241038 10.3561698460211087 10.6621083411304838 Ga
atom 11.7412094256694921 10.5846603030833393 5.3041045112672123 Ga
atom 13.2066925186802333 7.6868128365419670 0.0747699583203005 Ga
atom 13.2657703916674450 7.5418462175599856 10.6010212402408808 Ga
atom 14.7318980291403641 16.4051057369260818 16.0773240548545573 Ga
atom 14.8661374978849512 16.0212844517216162 10.5880288698160197 Ga
atom 14.8238375660787849 16.2865351863558061 5.0767191678317918 Ga
atom 11.5339318843156757 16.0654570723170309 16.0339686958578014 Ga
atom 11.5640295252375669 16.0588850998049431 10.6207250674218248 Ga
atom 11.4820513186479936 16.0941465462447191 5.2002274778349626 Ga
atom 13.3271781207107995 13.1359857897949155 16.0720845012322329 Ga
atom 13.2101512157050536 13.1688429097451358 10.7945881235932983 Ga
atom 13.1251451043920557 13.5288651688461972 5.2444630135257997 Ga
atom 14.9583910540007228 10.4239589867964604 0.0883398007683371 Ga
atom 14.7728454522983306 10.1776327731822498 10.6371601602643278 Ga
atom 8.0791653482000481 10.2978635595822521 10.6056362994376947 Ga
atom 8.3970106104898097 10.5054101039710464 5.4498239171501686 Ga
atom 9.8921183686935841 7.7282048176878488 16.0259685476498923 Ga
atom 9.8331105376817618 7.6951772600626773 10.7210279434835307 Ga
atom 9.9344042186669199 7.7434544576359912 5.2310691736799484 Ga
atom 11.5289260066746291 4.9334494293559610 16.0456092103765968 Ga
atom 11.6241499645575974 4.7010302170219713 10.6565923502544404 Ga
atom 11.3695726496959466 4.7857786309923815 5.3666662567112731 Ga
atom 13.0742110675871839 2.0569731633123740 16.0435066794088961 Ga
atom 13.2127939142306765 1.8169118018276056 10.6642421349149075 Ga
atom 13.1949462233405725 2.1000187665230552 5.2418202247853776 Ga
atom 13.1928164081097172 7.6256526309405244 5.3129575465161052 Ga
atom 14.8474442045217003 4.7898214765499025 16.0206961733756685 Ga
atom 14.9338933851632447 4.8512059202339657 10.6983796704546013 Ga
atom 14.7727006845534152 4.8442148411663482 5.3975237209383611 Ga
atom 4.8204410974045047 16.1122074843174161 0.0306694096258585 Ga
atom 4.9856018266488134 16.2822965872169512 10.8571883284026551 Ga
atom 8.1727542048508610 10.2927731994706111 0.0930932346620928 Ga
atom 6.7070590084095238 13.3253718568864077 5.4197614999011794 Ga
atom 6.6642218207792707 13.3139897116904820 10.7382311851600836 Ga
atom 6.7485979346989060 13.4231024814461612 0.0091147627757869 Ga
atom 4.9485054883017154 16.2817901869271466 5.2951847569102215 Ga
atom 3.2525369001296549 9.6047668941565654 9.9627839761775352 N
atom 3.4796896896750038 9.5687951454403297 15.5659036261774553 N
atom 1.6973753550932487 12.4812407095817033 4.8056377474294480 N
atom 1.7700028677820372 12.3763183107121595 10.2029654304060298 N
atom 1.6369777142606181 12.5446792122289317 15.3946676327846568 N
atom 16.4509621723023507 15.3530116207121825 4.6304619449054449 N
atom 3.4353639001899312 9.7135709548310256 4.7958933835594868 N
atom 4.9003179163635160 6.6540750149211796 15.3973495230096251 N
atom 4.9170171946367214 6.6202526719364316 10.1416193171431388 N
atom 4.9230756348362830 6.6332316923689767 4.8085852311381281 N
atom 6.6425690048313273 3.7214110573302581 15.3262746287696903 N
atom 6.6602549191814706 3.8088479887295899 10.0360838617509085 N
atom 8.3147869345221874 6.6000095908871197 15.2993378207085104 N
atom 8.2140140162320545 6.5637603822973398 9.9948019197758811 N
atom 8.2532422149044820 6.5432758022327873 4.6483816997250109 N
atom 9.9089091274553489 3.8870716289389926 15.5564656141654218 N
atom 10.0821465017502785 3.7420444144990155 10.0053555854184317 N
atom 9.7887948842553634 3.6403132605271611 4.5993144920070499 N
atom 11.4746537589918312 0.8798007647680990 15.4370598134516435 N
atom 11.6307879299748329 0.8846226888660695 9.9458275903999045 N
atom 11.5809243879936634 0.8991840613275448 4.5786109334355052 N
atom 16.4071893702782745 15.4031634638759254 15.6520479886450978 N
atom 16.4612246607467831 15.1886169790379970 10.0161329350454160 N
atom 3.2558829781170040 3.6581946257320324 9.9454632555794742 N
atom 3.3095762610670842 3.7844762785944153 4.7967932338470778 N
atom 4.8466167631212453 0.9367752279365507 15.5061308249474283 N
atom 5.0155985125082410 1.0408782025743073 10.2077842992243895 N
atom 4.8205468219799004 1.0352483377831725 4.6750667228450000 N
atom 16.3732242118493510 3.9441329354086880 15.3324680949491281 N
atom 0.0722863670258736 3.7412640532753043 9.9352552021603397 N
atom 16.4500677260031196 3.8733333600390250 4.7378794782180824 N
atom 1.6352055621623545 1.0115220550429240 15.4015346421171397 N
atom 1.6222869051971165 1.0350285507273453 10.1795476902735906 N
atom 1.6644937393025832 0.8309352902351993 4.8218891254155114 N
atom 6.4011402162131841 3.7999019643076375 4.6618274850114094 N
atom 8.2615814956265936 1.0193469225256326 15.4051194693780396 N
atom 8.2049825268275676 0.9476854700424640 10.0236416142508755 N
atom 8.1576930654342590 0.8726364687978162 4.6974796468036581 N
atom 16.4125907267025113 9.4577896613847265 15.4384602620546598 N
atom 0.0145288035998739 9.5078190288827003 10.0508760620806523 N
atom 0.0372304340766379 9.6223581153392441 4.6283288526731283 N
atom 1.6584466690321444 6.7872603855761326 15.4212872491235569 N
atom 1.6430974771365090 6.6343614485991189 10.0699775319860585 N
atom 1.5990405495505100 6.7890116612592397 4.8777819502447910 N
atom 3.2207090787987358 3.8199135890479612 15.4264602599954266 N
atom 11.6397921820649959 12.3840264737788761 4.6707493858378868 N
atom 13.1463491861583286 9.5089228892231716 15.5402350683643924 N
atom 13.2264791530135977 9.4949112757205523 10.0967919943150370 N
atom 13.3270319292641268 9.6257657282587381 4.7706527239305032 N
atom 14.7852198378599997 6.5940846977439795 15.4476369548746160 N
atom 14.9262870008339874 6.7407563000990329 9.9704880390623636 N
atom 14.8894757825207957 6.6191248165643941 4.7723579515417951 N
atom 6.6558478669502996 15.3335491323692299 15.4516220715237456 N
atom 6.4851497133877469 15.3044446448204940 10.0285327618451330 N
atom 6.5985011775348426 15.2109024823033678 4.7383583914944793 N
atom 8.2214708882961993 12.2140473714577116 15.2911402570299995 N
atom 8.2577466761390372 12.2822586371964881 10.0389141379014095 N
atom 13.1818876890417904 15.0790852081594124 15.4656104988103245 N
atom 13.0962550787919483 15.0144316732223491 9.9705007914662005 N
atom 13.1481536656516091 15.3508874936787461 4.5511282663286146 N
atom 14.9087143858506010 12.2101149698756597 15.5590407276612641 N
atom 14.8363450893581490 12.1439003014436846 10.1029725681806539 N
atom 14.7821820218149771 12.5309301496422485 4.6252491382238849 N
atom 9.8050533873084973 15.0692858515175665 15.4045088894533713 N
atom 9.8458239467122581 15.3213219358334705 10.0454556998979356 N
atom 9.7197049920809420 15.1354614372608598 4.6196281150619196 N
atom 11.6713387517343179 12.3214590159821249 15.3032830581691677 N
atom 11.5225148797923556 12.2844631572122243 9.9805301020091211 N
atom 14.9357901885302109 0.8702712925524509 9.9727061676980426 N
atom 14.6900244406869618 1.1375824401121901 4.5248026166205841 N
atom 3.1564007128419544 15.3850093179112424 15.5424008065898178 N
atom 3.3581445643377039 15.3362470997107430 10.1888807057792139 N
atom 3.1891878646427019 15.2334545192998494 4.7170453694917747 N
atom 4.9471133555175539 12.4494059816741558 15.4209246851834365 N
atom 4.9605041428421375 12.1829188067676153 10.1025070409666959 N
atom 4.8427628568734065 12.4126563719781000 4.8026024878012814 N
atom 6.6167706720008299 9.4765108031911147 15.4219784927737749 N
atom 6.5682304053211764 9.3330901723301842 9.9441335746621959 N
atom 6.7143706596103128 9.5057568051458627 4.8206666924784729 N
atom 8.2719820462603373 12.4610726253455226 4.6903876290547970 N
atom 10.0504684159857351 9.5042653889138240 15.5566287754432064 N
atom 9.7799235114333207 9.5211345486064243 9.9043701291456063 N
atom 10.0725491897080701 9.6135066205843831 4.7221397790450439 N
atom 11.6328267480927412 6.7307825572000146 15.3355644356073384 N
atom 11.4685483300202762 6.6351204647283275 10.1836095824247597 N
atom 11.4948229973944436 6.6968450867250269 4.6272947802598239 N
atom 13.0447017123550637 3.9467759143756371 15.4074318854573793 N
atom 13.2911233751372002 3.7006496294440381 9.9853819884022972 N
atom 13.0593558724594274 3.9367857811336595 4.6160172191616207 N
atom 14.8135047617413793 1.1428790241649192 15.2473742391651381 N
atom 6.4953097225359189 7.6916161497692768 2.1430988625706524 N
atom 8.3603234559009660 4.6472765485092182 12.8464499099842637 N
atom 8.4247075644849989 4.5111515166020375 7.4394127207497975 N
atom 8.2586951128030659 4.7666098384564339 1.9798173785603241 N
atom 9.8955099539951767 1.8948908733314440 12.6680412676704783 N
atom 9.8764955653310604 1.8101937954613587 7.3993839941219193 N
atom 9.8807483244293977 1.7736255030462318 2.0574700899392848 N
atom 16.4060835532741471 13.2360415526978610 12.8892484207775500 N
atom 0.1478606204539423 13.2865886724061184 7.4091594973179298 N
atom 0.0630886269321390 13.2218490658146770 2.0572691125014884 N
atom 1.6517856085738236 10.3583207083463851 12.8314416051713565 N
atom 1.7878504217071665 10.6980395333277070 7.3739501947064126 N
atom 1.4322444631724296 16.1395970572013923 12.8611769307414949 N
atom 1.6088245807984802 16.0325976155029295 7.5374615796215654 N
atom 1.6239253372990887 16.2272995248384717 2.1200707992663719 N
atom 3.2755284876869148 13.3551238675983814 12.7473969257849280 N
atom 3.4133100402355150 13.2751105413396555 7.4580401572936115 N
atom 3.5901150756874718 13.4107606755012334 2.0085845225343499 N
atom 5.0737878594523007 10.4673287401420243 12.8445115442324447 N
atom 4.9526802295106034 10.4312111576287769 7.3696598760846177 N
atom 5.1656404495398842 10.5059381424275013 2.1222883641105406 N
atom 6.5018011189717013 7.4752669105967460 12.7564987426360137 N
atom 6.4840908456119628 7.5545485939602539 7.4873976953678660 N
atom 0.0743709278964551 7.6486525047402596 7.2038697363254149 N
atom 0.1053645125592542 7.6381723903336383 2.0355159212056733 N
atom 1.4881960627164086 4.8367746942990397 12.7691665334214424 N
atom 1.7702327208208080 4.8870758096850091 7.4351742919612489 N
atom 1.6237177321735607 4.6588262616223419 2.0234737098963103 N
atom 3.3288446795825863 1.8347126692707481 12.9169613464018305 N
atom 3.2250001537265240 2.0298585001068639 7.3322692141995525 N
atom 3.2112881131700171 1.9279957830655812 2.2028361335507860 N
atom 16.3546338806405664 1.9054394313389102 12.7010923157588653 N
atom 0.0065985268915313 1.8111381558354920 7.2381144505579496 N
atom 16.4752167036580950 1.9893098303559229 2.0122864527970399 N
atom 1.7680290738640807 10.7544637133296686 1.9464428171036705 N
atom 3.2802520541992890 7.5519355347650112 12.5722656869492191 N
atom 3.2806953910499144 7.6288131790052214 7.4080092182020927 N
atom 3.1614643536149871 7.7764375827646459 2.1318211520206121 N
atom 4.7678215549521585 4.7086020874178329 12.7477426225498807 N
atom 4.9307466999860949 4.8741973856344334 7.3600092244876061 N
atom 4.9730157723797888 4.7730126428081636 2.0238012623344597 N
atom 6.5292422800087300 1.9295736400307906 12.6875546306160114 N
atom 6.6553085634524463 1.8313646733813327 7.4049208533750770 N
atom 6.5994462508339007 1.8033986040377443 2.0130666608440695 N
atom 16.3272029250427479 7.6521730678288424 12.9530766091401457 N
atom 14.8371425757296258 10.4805396474067134 2.0596805529056872 N
atom 8.0761356789922356 16.2005740588825269 12.7439935069670085 N
atom 8.1677025893654314 16.2175653810765574 7.4418326440312592 N
atom 8.2265568139181404 16.1323098618892864 2.0017765731094230 N
atom 9.9023020088098654 13.2672396556588250 12.6632358787825776 N
atom 9.8346613150698392 13.3294350559051757 7.3809204502103176 N
atom 10.0104051278919712 13.2481571036278893 1.9884007337597784 N
atom 11.4106500416156447 10.3076271881997332 12.6318199990677975 N
atom 11.6359002705174479 10.4704604865566111 7.3573685378771039 N
atom 11.6203468423811014 10.4786331250453220 1.9727439492432657 N
atom 13.2158538996957251 7.6381612626367694 12.6520031650804334 N
atom 13.2604726273622582 7.6245369191418382 7.2432258598301109 N
atom 14.8175923825762137 16.0631250337458624 12.7514525652934552 N
atom 14.6892234944705145 16.1260848211612959 7.3127140909990862 N
atom 14.7908413741012392 16.2299104188061598 1.9653076135202121 N
atom 11.3973849547457800 16.1820080559759703 12.6848796858238781 N
atom 11.4737768917979164 16.1210771097102032 7.1951527574953724 N
atom 11.4836972052541153 16.1738679640133078 1.9463124691348552 N
atom 13.2948935019854311 13.1995283447710516 12.7933074010813357 N
atom 13.1409264343412513 13.1425522723789889 7.4391348586305437 N
atom 13.1337244155605859 13.3222143389037324 1.9266091904171365 N
atom 14.8687294707311821 10.3541890726597217 12.6851490080656450 N
atom 14.8412483620350368 10.3498488794635612 7.4440925665883544 N
atom 8.2249788406746891 10.3794408443610173 7.3793079298020077 N
atom 8.1987989177671370 10.4896685239503000 2.1849884228631216 N
atom 9.8261691238611721 7.7142979832952401 12.6491625319143193 N
atom 9.7965901814915224 7.5201237607756388 7.2821110329526153 N
atom 9.8885417022734359 7.6470984703580740 1.9498987968226389 N
atom 11.4756598795500100 4.8365553932149101 12.4575499204356728 N
atom 11.4694031558334331 4.7647771585203467 7.4097229586398203 N
atom 11.4506330780612302 4.7381224293429591 2.0858069201332965 N
atom 13.1326802459902687 1.9055542482450443 12.7345572544007553 N
atom 13.2243195752137481 2.0055939157543534 7.2805392326325480 N
atom 13.1120556724933266 1.9464630604472317 1.8778136804330223 N
atom 13.2971155237588157 7.6130157458200429 2.0727144681953766 N
atom 14.7257653113156390 4.8555448734275322 12.6579640901438566 N
atom 14.8240002108200120 4.7427177538695968 7.4631032590595892 N
atom 14.6986339438048006 4.6454356805653312 2.1079161527880337 N
atom 4.9788571425467820 16.0985546066786185 12.8002006643400605 N
atom 4.9202420937109661 16.3358845679654827 7.3925705032182831 N
atom 4.8885601317267540 16.2262191647427692 1.9944589645056527 N
atom 6.6254600431766750 13.2057214286339732 12.6878553292403495 N
atom 6.6341852894876157 13.4539254901824030 7.4436029449181653 N
atom 6.6222589830757732 13.4941405897213826 2.1834297242096290 N
atom 8.2304529967790430 10.4414642700647757 12.6980277293300361 N
