#===============================================================================
# Created using the Atomic Simulation Environment (ASE)

# Thu May 11 08:59:47 2023

#=======================================================
lattice_vector 16.0100851999999989 0.0000000000000000 0.0000000000000000 
lattice_vector 0.0000000000000000 16.6381685999439100 0.0000000000000000 
lattice_vector 0.0000000000000000 0.0000000000000000 15.6179127599999905 
atom 0.0001553784268124 14.8046042939737283 2.5748522836053196 Ga
atom 1.4973138999320819 12.0226912344776284 13.0462910031796593 Ga
atom 1.5139509393490207 12.0525733674792885 7.7767984522689177 Ga
atom 1.5722669477008699 12.0279677642257212 2.7158283218735564 Ga
atom 3.2323806498095586 9.3072555556122634 12.9044999409140964 Ga
atom 3.1445000609102083 9.3046140962491108 7.7268217300524604 Ga
atom 3.1851741537804883 9.2763431175159354 2.6629577206976225 Ga
atom 4.9301635944709545 6.5376656446297083 13.0209971404441411 Ga
atom 4.6444840487864099 6.5039111824616782 7.8289363159902203 Ga
atom 4.8877920602227629 6.3935737359369638 2.7076407016913158 Ga
atom 6.3560019157925947 3.7959492348786821 13.0104795677432321 Ga
atom 6.2685927237445718 3.6806363649178215 7.7555185227880941 Ga
atom 8.0856753757681492 6.3167395617898450 12.9834645458447326 Ga
atom 7.9685827411342665 6.3595510917365283 7.8533665088380786 Ga
atom 8.0987215292173662 6.4443735469204873 2.5540017738130136 Ga
atom 9.7131507000049186 3.5255657158936042 12.9660653977646003 Ga
atom 9.5418836164207708 3.7330086885433649 7.8749771656704368 Ga
atom 9.5820570166582932 3.6195537299993741 2.6637046116219065 Ga
atom 11.0752626288936469 0.9939152246564795 13.1119215665197135 Ga
atom 11.1351255349663116 0.8337322946586140 7.8127280296541182 Ga
atom 11.1826578614165886 0.9442435297515599 2.5737990036106777 Ga
atom 0.0034091199976997 14.8810021570494957 13.0563505053603617 Ga
atom 15.8877936537989388 14.9167189972469867 7.8758733437104667 Ga
atom 3.0703723257551352 3.7541380229841872 7.8673874978546561 Ga
atom 3.2851572512798382 3.7474730717801839 2.5149002196262886 Ga
atom 4.7768126121573458 0.8413370881998793 12.9880660023745893 Ga
atom 4.8071934760067467 0.8667715600334712 7.7985747110827308 Ga
atom 4.7497231519182446 1.1117352931534767 2.6391432460745827 Ga
atom 0.0684346291536533 3.7300708616361442 13.1736688298282552 Ga
atom 15.9247785037059177 3.7190104214878241 7.7774494154279354 Ga
atom 0.1018322532169228 3.7336036325180935 2.6222667195239788 Ga
atom 1.5895240772428640 0.8725170981695339 13.0189537436309983 Ga
atom 1.5379927828768840 0.9637092708004622 7.7875126557424705 Ga
atom 1.6120498689087401 0.9174534545127161 2.5528153030498402 Ga
atom 6.5889468494683943 3.6728287621251541 2.5161744761123122 Ga
atom 7.7871861377989227 0.8636174237492020 13.0672284957231017 Ga
atom 7.9875221627620903 0.9404464136499635 7.8225301038556694 Ga
atom 8.0568942196615936 0.8701011901075794 2.6153863415299878 Ga
atom 0.0165696495104738 9.3452121554270047 12.9665197774273331 Ga
atom 0.0179762528846006 9.3314951357310765 7.7319952609703622 Ga
atom 15.9648105249445376 9.2213718911122804 2.5959966920424096 Ga
atom 1.5649393114687882 6.5700385320002841 13.0118355443296210 Ga
atom 1.5407824965897383 6.5135467650125412 7.8071905424956247 Ga
atom 1.5907362436475512 6.6395830141680090 2.6195265240213299 Ga
atom 3.2995825596635222 3.7370500965220614 13.0284456104397464 Ga
atom 11.2909686372245446 11.9461253326183243 2.6387705743380505 Ga
atom 12.8808697971420010 9.1469058435370272 12.9308285242900407 Ga
atom 12.8153976803016292 9.2382962497825662 7.8238870579945479 Ga
atom 12.8014248393417382 9.2906154869184920 2.6649360107651918 Ga
atom 14.4743481262570040 6.4595358060439478 12.9797473124456957 Ga
atom 14.4532808241229169 6.5268955261785271 7.7925048272769555 Ga
atom 14.3996135449551481 6.4053601120056758 2.5865949974602591 Ga
atom 6.3301999854066011 14.8567756360729852 13.0405891297727123 Ga
atom 6.5418883157053704 14.8096709445565224 7.7756642097765258 Ga
atom 6.3750864558006208 14.8615832792476290 2.6283705314094954 Ga
atom 7.9612647293738696 12.1519104074656870 12.9619333937200913 Ga
atom 8.0073816970076805 11.9153578854969453 7.7783641088810267 Ga
atom 12.7770213587434593 14.7858963440903146 12.9617729570585780 Ga
atom 12.6599502626846867 14.6588378316647088 7.8284201082351892 Ga
atom 12.8211404196315097 14.8359587025552226 2.6568224051286062 Ga
atom 14.3247788408147994 12.0507064872273553 13.0538352246138292 Ga
atom 14.4002510643973363 11.9979638747669028 7.8206424968766255 Ga
atom 14.3653791498457775 11.9348917272569164 2.6124657307900110 Ga
atom 9.6494762226198674 14.7690601120309832 12.9583125598094462 Ga
atom 9.6243734240746335 14.7843609716584048 7.8082115630114570 Ga
atom 9.6370546911394008 14.7268668665493081 2.6239468242129749 Ga
atom 11.2685115927188253 11.9429619716864828 13.0167705823011666 Ga
atom 11.2405326303160162 11.9530710961810165 7.7728411708751288 Ga
atom 14.2791239009650379 0.9656370663319318 7.8453140887961315 Ga
atom 14.3895143099903056 0.8132448169034995 2.6189034135986673 Ga
atom 3.2287306137985308 14.8347528658054060 13.0681208410434717 Ga
atom 3.1545805827861946 14.8224684428655387 7.7852458843065033 Ga
atom 3.2367354754094806 14.7633603523950896 2.6893830155244549 Ga
atom 4.7752757204440739 12.0451859231947864 12.9236808888163228 Ga
atom 4.7458528725015814 12.0581450624226818 7.7069657258450501 Ga
atom 4.6975908854173642 11.9889566942721739 2.6328535692282014 Ga
atom 6.4509216749682210 9.2572556887381321 13.0249750533913371 Ga
atom 6.3516125180507137 9.1347747139601729 7.8438592599358072 Ga
atom 6.3289290720413227 9.1857180372305258 2.4864381900075339 Ga
atom 8.0060670217249879 11.8726099735843178 2.5434042719437220 Ga
atom 9.6542911418781188 9.3031409451683462 13.0663925025889984 Ga
atom 9.5566582618225642 9.0602232171481258 7.6775442974173558 Ga
atom 9.5833221240045994 9.1379014907253406 2.5159990741247134 Ga
atom 11.1354148951506957 6.3638339189000419 12.8777811397060375 Ga
atom 11.2254259018744804 6.3783413729136873 7.8373197748609496 Ga
atom 11.2783126631355692 6.4931668344658675 2.6726340895835117 Ga
atom 12.8636869287058726 3.7094096738236582 13.0743210336657327 Ga
atom 12.8378840924423603 3.6093296359268612 7.8510453376048703 Ga
atom 12.9328807862915287 3.5873156006334077 2.6110634862148490 Ga
atom 14.3782644436491669 1.0288905467915355 12.9561203680861059 Ga
atom 6.3998458768096285 7.2660981079050089 5.3104777969597086 Ga
atom 8.0339404821329818 4.5530605940223374 15.5389770538215064 Ga
atom 8.0272116700114982 4.6891036551568499 10.4452722577856214 Ga
atom 8.0776542099872266 4.6012568128635856 5.0772870165034991 Ga
atom 9.5128837813995375 1.8111615756906096 0.0801203986526884 Ga
atom 9.5415182789928377 1.9273563129381359 10.4756986052589465 Ga
atom 9.6256666287234154 1.8022102139662823 5.3329747997091204 Ga
atom 0.0472645848076946 12.9814224606013049 0.0637663777551360 Ga
atom 15.9903999589776209 13.0103027947940380 10.3399920765000335 Ga
atom 0.1074754192160595 13.0485453885981375 5.1959590763794887 Ga
atom 1.6597578242338318 10.0755110287151712 0.0906246113707446 Ga
atom 1.6421331974385693 10.2257123825812126 10.3207520993793143 Ga
atom 1.6819490339283756 15.6476118234808315 15.5827196656459694 Ga
atom 1.7955729722762701 15.7571016890990645 10.4711223614158140 Ga
atom 1.5475688043233937 15.7030324722468144 5.0698563869713027 Ga
atom 3.1577397130216380 12.8630948856662890 0.0372710887095171 Ga
atom 3.1519037427040737 12.8678473088090062 10.4997508610049533 Ga
atom 3.3440627337526267 13.0007689709713645 5.2250594297274287 Ga
atom 4.7845147910843364 10.1623966259052700 15.5753524693865657 Ga
atom 4.8590830307571933 10.1934334021895694 10.2751733275957999 Ga
atom 4.7654243181562785 10.1599315948408186 5.2238097456994392 Ga
atom 6.4181236702529727 7.2566689350127254 15.6156027721606296 Ga
atom 6.2984458745165997 7.3620593810738999 10.4475959759825763 Ga
atom 15.9858480124498765 7.4024366247543831 10.5020284870141385 Ga
atom 0.0789716893446802 7.3709540899093486 5.1356210830352511 Ga
atom 1.7029651893179409 4.6908488004933959 15.5695269633585465 Ga
atom 1.5306471346756796 4.5858611470272770 10.3532386118893598 Ga
atom 1.6526934931589456 4.7052462683613765 5.2511000774887231 Ga
atom 3.1863873651986587 1.8127751992285308 15.5444569088895381 Ga
atom 3.1606876162573725 1.8326834771757738 10.3940234270109340 Ga
atom 3.1412787189887652 1.6999130243737666 5.2422531115818520 Ga
atom 0.1225560807137807 1.8982777595051732 15.5882020548888640 Ga
atom 15.9334470188747854 1.8624084514607158 10.4304864146348653 Ga
atom 16.0053841614129233 1.9478103194016376 5.2533894432411650 Ga
atom 1.6308875937758929 9.9988183539211626 5.1797733305047693 Ga
atom 3.2564142489016215 7.3773342989357076 0.1182851627730574 Ga
atom 3.2070031953606577 7.4804660058694772 10.3719814060899065 Ga
atom 3.3340092499150562 7.4457582815438244 5.2258702340008698 Ga
atom 4.8314017976974570 4.7179442628750925 0.0244456828903634 Ga
atom 4.8031944740483183 4.6125043720387247 10.3191164459236742 Ga
atom 4.7439952163936949 4.5439536207750715 5.1538092254276684 Ga
atom 6.4395080446818387 1.8690592455543646 15.6015863108555184 Ga
atom 6.4380703497691636 1.9405355427539077 10.3076680009773725 Ga
atom 6.3808834642671854 1.8885842354504216 5.1481480392929022 Ga
atom 15.9956567613015626 7.4215472501071327 15.5914435489699823 Ga
atom 14.4564195575849013 10.2866375470575360 5.2395940907016305 Ga
atom 7.8566700900650837 15.7259310017944323 15.5411103316822885 Ga
atom 8.0051927971003902 15.6975252762987232 10.4708594444517242 Ga
atom 8.0018772736374419 15.7897907892443801 5.2681919855983779 Ga
atom 9.5685752476493846 13.0818601225249562 15.5156463039583059 Ga
atom 9.6547109051111875 13.0031143540622196 10.3045566684798668 Ga
atom 9.5742957882103603 12.7413187146019009 5.2164323092291189 Ga
atom 11.2450258599565114 10.1627990418284941 15.4878874623910381 Ga
atom 11.1162676107763225 10.0974298577647552 10.3940485980567097 Ga
atom 11.0329803284734567 10.1055783052641104 5.2790119583794937 Ga
atom 12.9406446706233567 7.4239365868046914 0.0098176906235810 Ga
atom 12.8974094816630913 7.4465066081395177 10.3641085244797342 Ga
atom 14.4375303898915153 15.7980133587662586 15.5683214147778379 Ga
atom 14.3879067725508349 15.7431338177402225 10.5008203754678817 Ga
atom 14.3672023219653155 15.6564145071724496 5.2528155403336640 Ga
atom 11.2719388604959985 15.7307592806857919 0.0405002857004513 Ga
atom 11.0168558946606296 15.8452757921739025 10.4338778328320370 Ga
atom 11.1787106114573884 15.6836594416907023 5.0685804615741752 Ga
atom 12.7560516831510569 12.9384246156995815 15.5905597249199381 Ga
atom 12.7702300297301186 12.9471998368806691 10.3112709869565915 Ga
atom 12.8410697921216794 12.8714510862966058 5.1236512160910230 Ga
atom 14.4105460538335528 10.1205206091313968 15.6054655962702267 Ga
atom 14.4361281068630554 10.2456331713164843 10.3990401692864207 Ga
atom 7.9622640702336396 10.1946413994145626 10.4421234429615666 Ga
atom 7.8316093619166898 10.0501906393119107 5.1360018212486471 Ga
atom 9.8793519068192648 7.3654238789558173 0.0189552483434972 Ga
atom 9.6981308507321184 7.3544617874560148 10.4646077516147020 Ga
atom 9.6414831330803139 7.3437829794669467 5.2936440221883414 Ga
atom 11.2464567932408901 4.7311861766175367 0.0780141505732696 Ga
atom 11.3225540237945417 4.6824019929016689 10.5175315189044287 Ga
atom 11.2659939849023569 4.6732836561111917 5.2280495751804921 Ga
atom 12.8445342931672091 1.9282159601624402 0.1112939180690247 Ga
atom 12.7241512723842760 1.7915601592903407 10.4813973802019440 Ga
atom 12.8456524066779902 1.7311294905005186 5.2938581725731177 Ga
atom 12.8644780403061336 7.5310841988957140 5.2379572965137982 Ga
atom 14.5329570440230782 4.6229274721257045 0.0520104346330263 Ga
atom 14.4248328583608281 4.5716789872247388 10.3718929810854359 Ga
atom 14.4565438852506922 4.6554684812132656 5.2439411997972281 Ga
atom 4.8083815512691901 15.8116923768188844 0.1242975866280676 Ga
atom 4.7761881485177717 15.7241253078830887 10.4041543209239045 Ga
atom 7.9905302239693325 10.1175394062397821 0.0314540263576621 Ga
atom 6.5174297949237427 12.8797046694729005 5.1777436745756917 Ga
atom 6.3638747506733377 12.9094223589042656 10.2884010603202274 Ga
atom 6.3022356601137171 12.9272895767488709 0.0180008487372226 Ga
atom 4.8804913330931567 15.7208245583671591 5.2937308182738727 Ga
atom 3.1643138862817013 9.2848890504069246 9.6569417599282570 N
atom 3.2789119909135969 9.2737052149385093 14.8690654503207824 N
atom 1.8207856743448028 11.9644449034120459 4.6244329854617385 N
atom 1.4864193219222717 12.1093512891672894 9.7940685997153789 N
atom 1.5158180227467803 11.9961170836089455 15.0458993834584387 N
atom 15.9221097652842190 14.7800448074385251 4.5589181617601309 N
atom 3.1540559346622423 9.2205566509102308 4.5629715199923204 N
atom 4.7928969089307296 6.5454583059305191 15.0388496462948407 N
atom 4.8242241444464051 6.5119660915050552 9.8530316073567050 N
atom 4.8551743216662047 6.3461295248234846 4.5794385448239714 N
atom 6.4134134306033301 3.7464772951399072 14.9093150215363508 N
atom 6.3678314744536415 3.6854154590845694 9.6911129357085066 N
atom 8.0836006942889576 6.4294324574523287 14.9844510682809364 N
atom 7.9980992936608555 6.4807389207405102 9.9019249443297994 N
atom 8.1016992614366501 6.5413813151721270 4.5904081274340758 N
atom 9.7657879131174585 3.7226143118063320 14.9862865238941421 N
atom 9.6978936529728603 3.7526207313705542 9.8338057754417321 N
atom 9.7283242901281781 3.7145575738432188 4.6801484970499532 N
atom 11.2152093795388836 1.0011087954502951 15.0060573652006823 N
atom 11.0860817928726121 0.9466270952239796 9.7789832248376314 N
atom 11.1602527167781247 0.8642532947550917 4.5269922248911394 N
atom 0.1907265750229554 14.8209860233473716 14.9550711191588181 N
atom 15.9736526342760978 14.9157361306407399 9.8058191327453432 N
atom 3.2997796479627888 3.6554216919194897 9.8312682495701083 N
atom 3.0846455804865349 3.5745673388491119 4.5735501785576567 N
atom 4.7595937006318687 1.0494929739729779 14.9186258727019503 N
atom 4.8395899519722967 0.9531956897640689 9.8111073456902176 N
atom 4.8018312765799847 1.0041803427766482 4.5693940260086663 N
atom 0.1724372867939249 3.7250717904080703 14.9450837993497228 N
atom 15.9243197638796037 3.6740647165099354 9.6769283726088293 N
atom 15.9630595906713957 3.8340601844269036 4.5089905894966744 N
atom 1.8172474088475445 0.9419522333370245 14.9667203903001749 N
atom 1.5797996085841879 0.9495583746396603 9.7012225976169546 N
atom 1.5219853116004276 0.8592309990794805 4.5283312270578353 N
atom 6.4876134154618699 3.7082637522240769 4.4355908970154809 N
atom 7.9696483511343397 0.8546088898224834 15.0599594888238162 N
atom 7.8966231190445919 0.8127995265015615 9.8066950093035903 N
atom 7.9676872245548722 1.0141887957797595 4.5730385484909446 N
atom 15.9860947979831405 9.3178163994816092 14.9171474128840043 N
atom 0.0099667819533110 9.2079990875359403 9.7738323368144737 N
atom 15.9763765780961009 9.1922755886297818 4.6038995705267762 N
atom 1.6209050359843005 6.5169221402379387 14.9818057292462594 N
atom 1.5507340686156510 6.4783479897744680 9.7373131476568471 N
atom 1.7220637804221051 6.5112490524153923 4.6376408618430105 N
atom 3.2846306203262059 3.6838732975910493 14.9461885295525967 N
atom 11.1570087673021110 12.0972070432540963 4.5813540081855271 N
atom 12.7904468084648748 9.3656723852439008 14.8845826938669799 N
atom 12.8527418203864094 9.3444629014994902 9.8402837054494565 N
atom 12.7813876076355513 9.4173907670865766 4.5026688391736407 N
atom 14.4643277114950486 6.4695316593771004 15.0008388035947196 N
atom 14.4991365529306115 6.5124865716104470 9.7729899325387404 N
atom 14.5464252978686481 6.5254645705976069 4.6384501068865127 N
atom 6.3401498500603530 14.8280237705621278 14.9086877069764796 N
atom 6.3824448655837411 14.7646031800935074 9.7343033180766980 N
atom 6.3124750927016011 14.7453860038073845 4.6188176945936341 N
atom 7.9996869681743528 12.0429755563061303 15.0054648689984287 N
atom 8.0227453545016072 11.9915468763097817 9.7795188540353593 N
atom 12.9434491585598668 14.7336234608052585 14.8988411384947046 N
atom 12.6963571718493622 14.9223577182426386 9.8228890851452917 N
atom 12.8304065044655662 14.7656791130087619 4.5370736488660022 N
atom 14.3296940458527455 12.0701683061772442 14.9538964986097085 N
atom 14.4133561047596253 12.0522062840747459 9.7404443144062824 N
atom 14.4437775480452277 12.0427924410066769 4.5469799425449740 N
atom 9.4555651964752929 14.9056428923471191 14.8744425053803795 N
atom 9.6026950380057006 14.7970896528978404 9.8054880046900195 N
atom 9.5972336616723126 14.8175813652255908 4.4859945183826868 N
atom 11.1162942610736870 12.1157052748534859 14.9206370735165397 N
atom 11.0857637713781472 12.0388230061909329 9.7305456265807013 N
atom 14.3790260923803430 0.9900089638348475 9.7739045884179436 N
atom 14.4340237503294375 0.7427908338850622 4.6031174254040605 N
atom 3.3363996892772008 14.7767515028556531 14.9584905001944133 N
atom 3.1937592202293974 14.8053858954141759 9.7840409317753601 N
atom 3.2885359664712608 14.7499763008410945 4.6565999327512442 N
atom 4.6886083253612467 12.0580534590715676 14.8685956301174578 N
atom 4.7080022765182399 12.0489697000325435 9.6542416802185276 N
atom 4.7594139110290534 11.9893563834739272 4.5622824623639122 N
atom 6.3941943052005232 9.1749765455315817 15.0482629585643846 N
atom 6.3728710468250869 9.2282057959230652 9.8335446208419590 N
atom 6.2531197186996481 9.1720531053682297 4.5068968575669377 N
atom 8.0204385117325714 11.8425454063340236 4.5038387679482339 N
atom 9.7194859464038768 9.1722512613253535 15.0330545982590635 N
atom 9.5461161526017317 9.1942246033490900 9.7150711385158122 N
atom 9.5691721336190945 9.1748752663676552 4.5535299206172839 N
atom 11.3685240233978853 6.5760484950875950 14.8474806173791976 N
atom 11.2764857641123495 6.6175874549984162 9.7648813998632242 N
atom 11.2413282417771061 6.5941644502780443 4.5606333980374165 N
atom 12.8753906556024553 3.8223825835721215 15.1243907451023905 N
atom 12.9071969024897371 3.6262116346978881 9.7825485178093423 N
atom 12.9067462970905655 3.6145122456302339 4.5964870574012071 N
atom 14.4139442305729890 0.9108601213464271 14.9908108121305741 N
atom 6.3845497960443316 7.3208572404673591 1.9732828895453667 N
atom 8.0313204722387432 4.4854577624231649 12.2998654470078552 N
atom 7.9287990925393945 4.5421004025524727 7.0395860970011270 N
atom 8.0944610140990516 4.5898717302646492 1.8776885649983077 N
atom 9.4409939555936120 1.8059667187975457 12.4234356326918274 N
atom 9.5513924716338732 1.8831847040043677 7.2630355021587807 N
atom 9.5848929360670052 1.7575312023627585 2.0280229357094028 N
atom 15.9954756336113686 13.0191776842565279 12.3660792935026613 N
atom 15.8612305426709668 12.9257956053855168 7.1489820821262953 N
atom 15.9913308381037496 12.8691208315653700 2.0611996290706482 N
atom 1.5843875295847756 10.1988341039108281 12.3956845733433862 N
atom 1.5765455109203477 10.2675616475941744 7.0821741629475943 N
atom 1.6679625747296554 15.7542787146454355 12.3928250496476124 N
atom 1.4901832562391046 15.6853022650288345 7.0451923728601455 N
atom 1.7287074797347315 15.6820539438962392 2.0882950519362451 N
atom 3.1487874806933229 12.9795158276324969 12.4121911819367288 N
atom 3.0922794218789229 12.9395565431558417 7.1659401736131434 N
atom 3.0354704125765211 13.0263084670898586 1.9863118777083970 N
atom 4.8375053498409288 10.1663356942695593 12.3761970440030957 N
atom 4.8313006819725564 10.1259613076226795 7.1238799087704594 N
atom 4.7197993531273745 10.2480507574062916 1.8586490371098006 N
atom 6.4988902078395094 7.3442256645042194 12.3321357663409010 N
atom 6.2904314438517552 7.3176265442564059 7.2533873837706206 N
atom 15.9874560765862466 7.4375031837363084 7.0383754019324014 N
atom 0.0764050179700268 7.4790542379525160 1.9665203491429502 N
atom 1.6120998561553435 4.5937740802815910 12.3944192064183749 N
atom 1.6321471990028193 4.8056417158145077 7.2196966235965574 N
atom 1.6430255171704207 4.7046955249044382 2.0091133406587787 N
atom 3.2120376684083771 1.7535604228086314 12.3411177575876998 N
atom 3.2191641236267574 1.8674631957045069 7.2199103722612863 N
atom 3.1403483949767965 1.9012175535695217 2.0531171925921798 N
atom 0.0452543132123283 1.8943186651286921 12.3884382877222894 N
atom 15.9132882550596477 1.8810832824682264 7.1602695188734096 N
atom 0.0145035890758389 1.9418604629710476 1.9191640844065245 N
atom 1.5642398859331008 10.2423329302719743 1.9782185007136790 N
atom 3.2047034725925503 7.4150120306659160 12.3069813226713300 N
atom 3.0695419514590050 7.4394338984792157 7.1656540662544765 N
atom 3.2754053125827771 7.3533143777774006 2.0490754825476061 N
atom 4.7795014231823787 4.7474372218651144 12.3356502659851994 N
atom 4.6271806388852044 4.6094530536132190 7.0811502055304336 N
atom 4.8191371417997040 4.5809088622006930 1.9505945075385129 N
atom 6.3274789122188917 1.8604859663603059 12.3352490306726974 N
atom 6.4271956434681377 1.8223144743313484 7.1893410711400314 N
atom 6.4915759778211770 1.8740204247924870 1.9515223335704632 N
atom 15.9987292606858134 7.3902361343824152 12.4623555521992824 N
atom 14.3968163210006619 10.1279384751857719 1.9730575051731400 N
atom 7.9573077934697034 15.7290113610941908 12.4337442124936430 N
atom 7.9721811178358122 15.7137053891680125 7.2018536254176757 N
atom 7.9618909070112185 15.6345262374076999 1.9847628104301029 N
atom 9.6931713912693915 12.8771564342139850 12.3286998299732478 N
atom 9.5179259472568525 12.8527702194001083 7.1852782837598115 N
atom 9.6171747577308473 12.8447020535999066 1.9538956725879950 N
atom 11.2722548069213993 10.0717179512095498 12.3222704147367637 N
atom 11.0275275667983639 10.0556903574808700 7.1781955930581400 N
atom 11.2432621038458969 10.1212159091150777 2.0021437086657250 N
atom 12.8684986532286327 7.3114940812473517 12.2655726609193003 N
atom 12.7466010509167944 7.4584244899490253 7.1314294706016828 N
atom 14.4381990555868800 15.8537762661857702 12.4038357315658896 N
atom 14.1711609557600156 15.7545954040977154 7.1963125919329984 N
atom 14.4669340053101045 15.6653663593590409 1.9094888568019528 N
atom 11.2623854427363437 15.7232239170055106 12.4464554916363106 N
atom 11.1358343227785994 15.7398926549142857 7.1408463878231521 N
atom 11.2412279351327484 15.7198537099114066 2.0102764590593138 N
atom 12.7373063651542147 13.0139490939478186 12.2836028885856212 N
atom 12.7687080111762654 12.8951226765671514 7.0645231157429675 N
atom 12.7920539037203582 13.0295524014185631 2.0192753166029958 N
atom 14.3860588764294377 10.1335952862861305 12.4310435597634736 N
atom 14.4148090484913975 10.1894985722949070 7.2072127838084308 N
atom 7.9403310198679096 10.0139916680933947 7.1075401663303728 N
atom 8.0602675584158465 10.0734519795514252 2.0189168210320676 N
atom 9.5737249753760469 7.4549105664736643 12.3859196130029350 N
atom 9.6216212093632887 7.2746806985190169 7.1016145572528790 N
atom 9.6964639436217137 7.3046749850854589 1.8712288397158816 N
atom 11.1974849172611819 4.6409689410553350 12.4633954479819096 N
atom 11.1416294049664675 4.5103225940224601 7.1786313859084920 N
atom 11.2834592157674312 4.5181234133838739 2.1176636100873072 N
atom 12.7666342643168580 1.9023336448671568 12.5305736207005864 N
atom 12.7005818158056698 1.8447560362238073 7.1048313392526019 N
atom 12.8761578452587351 1.7547791380641466 1.9995192165628113 N
atom 12.8232679698005647 7.3910881347724811 1.8759571367529806 N
atom 14.3996990981639836 4.5325460437320713 12.4731236845832889 N
atom 14.4209299967096243 4.7480180625155297 7.1860615648828041 N
atom 14.4554331748553402 4.5828806450289949 1.9095480762750461 N
atom 4.8721937070401049 15.6440816653632044 12.2163410207411047 N
atom 4.9194648462900652 15.6702951255621201 7.1388188056926944 N
atom 4.7719550554741881 15.8563372392941346 1.9931610528870447 N
atom 6.3014010022565321 13.0758205759737454 12.2873624192061044 N
atom 6.3666745957384538 12.9236975642392355 7.1063732497449745 N
atom 6.3209512411625859 12.9234333088730189 2.0585189479703820 N
atom 7.8598547795262776 10.3218166074843882 12.4225298192687621 N
