#===============================================================================
# Created using the Atomic Simulation Environment (ASE)

# Thu May 11 08:59:11 2023

#=======================================================
lattice_vector 15.6273739999999997 0.0000000000000000 0.0000000000000000 
lattice_vector 0.0000000000000000 16.2404434541285205 0.0000000000000000 
lattice_vector 0.0000000000000000 0.0000000000000000 15.2445761999999903 
atom 0.0575585067749938 14.3721710739424200 2.5823129814352419 Ga
atom 1.6013998666119071 11.6573695044313883 12.6068408754244050 Ga
atom 1.5905100144822142 11.7598193017026720 7.6211519864909576 Ga
atom 1.6486053542678278 11.7448398838519861 2.5363006395720462 Ga
atom 3.1787713657865666 8.9265932553310119 12.7137876197704305 Ga
atom 3.2225601730803817 8.9461346196740994 7.5995457129030095 Ga
atom 3.0708282564276486 9.0669664163470181 2.5090702837286707 Ga
atom 4.7482061523442329 6.2858586324078072 12.7755340899966203 Ga
atom 4.6992761561914733 6.2757591170919920 7.6372440646131983 Ga
atom 4.6633803688354503 6.2764270356908769 2.5666730840796359 Ga
atom 6.2891786931795401 3.5827144287529653 12.7761912422368145 Ga
atom 6.2402116823598694 3.6864018510598497 7.7011940599707573 Ga
atom 7.8585625004877997 6.2660400236394711 12.6746797475565227 Ga
atom 7.7859496887212662 6.4273801581092576 7.6193079857593133 Ga
atom 7.7669892356120842 6.2512609500994918 2.5039698599730484 Ga
atom 9.3481055465987559 3.5534550096230375 12.6533840076308106 Ga
atom 9.3932510579773538 3.6126364371381947 7.7174900264970425 Ga
atom 9.3452527089155435 3.7050860460287791 2.4759076369542297 Ga
atom 11.0675366603833556 0.9637765948930792 12.8213103935316486 Ga
atom 10.8902228040402100 0.8383481623828467 7.6949756503720685 Ga
atom 10.9072979371700871 0.9695542605609684 2.5739389028641741 Ga
atom 15.6118448662764653 14.3213346761064795 12.6365764822381141 Ga
atom 15.5284414702292164 14.4764513010166116 7.5694940486152467 Ga
atom 3.1006481431249298 3.5372663802503941 7.6440608132066883 Ga
atom 3.0285159597209605 3.6083413863372864 2.5603274574944956 Ga
atom 4.8503604609112445 0.8527940446743937 12.6112757959321797 Ga
atom 4.6978575267820890 0.9718196138063091 7.6654287373525882 Ga
atom 4.7266656276961951 0.9464427155544012 2.3910629779888515 Ga
atom 15.6175463795670240 3.5325372568416129 12.7586529831866198 Ga
atom 0.0221813885527629 3.5695223521865227 7.6091680910601260 Ga
atom 15.5714487539218425 3.6193783437214502 2.5439770820635133 Ga
atom 1.5563552589536058 0.7828166764631634 12.8022542153332086 Ga
atom 1.5942298062246045 0.9266998352807501 7.6764044930183646 Ga
atom 1.5771396547466832 0.8550794008333336 2.4262112160309814 Ga
atom 6.1391762363015898 3.5748802565591729 2.5280286140795352 Ga
atom 7.7956074252279288 0.8420775471819552 12.7175949793330467 Ga
atom 7.8594420757788370 0.8292058550939266 7.6519686992903235 Ga
atom 7.8727644351739023 0.9230630530146967 2.5204327225108107 Ga
atom 0.1278066221968839 8.9997658978617441 12.7278792566220140 Ga
atom 0.0022779203358399 9.0137039944423432 7.6508116492516915 Ga
atom 0.0016385004823597 9.0644312614171785 2.5029818076587516 Ga
atom 1.5775481779153802 6.3015667230075705 12.7401731791239410 Ga
atom 1.5927419250943640 6.3138562226649055 7.5372659956483536 Ga
atom 1.6589118487217034 6.3359992073225522 2.6161901249154136 Ga
atom 3.0947650199765819 3.6320958637320540 12.8071287510931153 Ga
atom 11.0286491140333034 11.7355399474400972 2.5804111641418901 Ga
atom 12.4869360449735982 9.0761697264170884 12.7234822088510491 Ga
atom 12.5781351506210992 9.0794765189178754 7.6863236506662602 Ga
atom 12.5184738174222634 9.0144100367955922 2.5094722996824514 Ga
atom 14.1301043022788129 6.3013323029591071 12.6744826092912106 Ga
atom 14.0431581525576039 6.3547954037596170 7.6174100927834587 Ga
atom 14.0112712547363483 6.3912085881851430 2.6355881986048653 Ga
atom 6.2759405605364815 14.3298574269733692 12.6475252743788058 Ga
atom 6.2525705235446960 14.3774825962141701 7.6659265275708366 Ga
atom 6.2579808016553677 14.4339909105141366 2.5321472008525703 Ga
atom 7.8399356275035919 11.6790194312447788 12.7223534495312194 Ga
atom 7.8068928823685706 11.6740455423559517 7.4307522830438275 Ga
atom 12.4506228187691601 14.3715814000350868 12.6663243707267981 Ga
atom 12.4417642326520461 14.4793923839125931 7.5843243427361102 Ga
atom 12.5910775457670319 14.4086802740686029 2.4467595859793203 Ga
atom 14.0360219326522007 11.7751450787719385 12.5880500791014782 Ga
atom 14.1461882034463429 11.7304213197177223 7.4997082719886832 Ga
atom 14.1139133113793758 11.7635659497595935 2.4938257830885653 Ga
atom 9.3363280689888484 14.4761679121423601 12.7097035580039304 Ga
atom 9.4031881598177520 14.3632678287561486 7.5554120344572473 Ga
atom 9.4649278748263548 14.5069968025567384 2.4157093186431169 Ga
atom 10.8952137906174240 11.7217404237040164 12.6338800519685783 Ga
atom 10.9654809190030988 11.6381045602265925 7.6504665599890398 Ga
atom 14.0005330928902136 0.9726439167160364 7.6326944340770746 Ga
atom 13.9857796020632623 0.8733636574334723 2.6449254651678311 Ga
atom 3.1799492406953571 14.4210365626042112 12.7424407935393749 Ga
atom 3.0913266403268240 14.4628840861957464 7.5178740683424428 Ga
atom 3.0693639814753664 14.5185875923426035 2.5591361189789903 Ga
atom 4.7389398742704767 11.7646198858167068 12.6791617149352334 Ga
atom 4.6378688045661312 11.7318253473029479 7.6094708851947823 Ga
atom 4.8657823582841901 11.7406294256186143 2.4468418945635877 Ga
atom 6.2620629614523962 9.0339054750112915 12.7377305591465433 Ga
atom 6.1944699129916652 9.0725659754541823 7.7348295860778622 Ga
atom 6.2881957155087829 8.9796783835741163 2.5680376463875061 Ga
atom 7.9015898290406561 11.7126490331662829 2.6043704681920303 Ga
atom 9.3093712310603500 8.9288692807684207 12.6773251277355108 Ga
atom 9.3740025194413050 8.9869739890878027 7.6163822936519630 Ga
atom 9.3630127005022370 8.9668669793565847 2.4694556507355632 Ga
atom 10.9326867061106796 6.3354849257088492 12.6754206270542031 Ga
atom 10.9454322626950713 6.2427343024219972 7.6060957138882150 Ga
atom 10.9691205045628521 6.2256031463963346 2.5514511766505774 Ga
atom 12.5431780357617129 3.6623830225520906 12.7744559997582741 Ga
atom 12.4096251984992740 3.6380388881372889 7.7192625491843740 Ga
atom 12.5960863380041559 3.5884879261252509 2.5513445466801028 Ga
atom 13.9839988492853156 0.8866164086019798 12.7453618825022730 Ga
atom 6.2333236155014946 7.2624222958282783 5.0924195147263598 Ga
atom 7.9383522401214579 4.5196749940262357 15.2216027499459514 Ga
atom 7.7712634473955413 4.5497850855360458 10.1388462616171324 Ga
atom 7.8597823652216379 4.5512453692091084 4.9855646755087069 Ga
atom 9.3176375945218144 1.8416337177844031 0.0265007243207167 Ga
atom 9.4587914149750780 1.7923698828884558 10.1447231517882308 Ga
atom 9.2352803027460055 1.7350377573749154 5.2239082469322780 Ga
atom 0.0470353121287471 12.6144906306432656 15.1130389677017440 Ga
atom 0.0509327918739280 12.6569164869094077 10.0422545124396922 Ga
atom 0.0100324184513149 12.6388706232978514 4.9505347192105580 Ga
atom 1.5732774417936710 9.9518936210226290 0.0268627643785764 Ga
atom 1.5728950115394498 9.9798562599147509 10.1088835982617020 Ga
atom 1.6074580330495603 15.4091630597971818 15.2190022929237632 Ga
atom 1.6092955719335811 15.4730504692138489 10.0839472573888411 Ga
atom 1.5172201477591616 15.3672680328042812 5.1162799591413695 Ga
atom 3.1006099745436608 12.6719283328317793 0.0415254071861362 Ga
atom 3.1643244027940609 12.7335403549032584 10.1229986412895325 Ga
atom 3.1441547701112857 12.5941640963772894 5.1702245031932295 Ga
atom 4.7386153285002814 9.9766893039629547 15.2247879321992130 Ga
atom 4.6369576480021770 9.8866732826612207 10.1589559689873017 Ga
atom 4.6724723485582231 9.8910542599706428 5.0888562229792580 Ga
atom 6.3398791330215056 7.2216551758804890 15.1723964750337430 Ga
atom 6.1120984385980517 7.2504811880736355 10.2245175437216105 Ga
atom 0.0842689999617932 7.2262725756930113 10.0508429345238373 Ga
atom 0.0515383093642325 7.2921939118365282 5.0668367076118104 Ga
atom 1.6453435164436165 4.6547530578617788 0.0009408717219025 Ga
atom 1.5120902784112038 4.5439767380909162 10.2064657148760372 Ga
atom 1.5882124804766484 4.6061787903999996 5.0640250488492429 Ga
atom 3.2431721867588887 1.8572349042315854 15.1473812573237137 Ga
atom 3.1891052327349279 1.7437721177754129 10.3025390304120332 Ga
atom 3.1101710431616278 1.8313621859830489 5.0431858618213576 Ga
atom 15.4978897597822023 1.8350997592243032 0.0325752201552240 Ga
atom 15.4969115287365824 1.8126548378026854 10.2309965751220204 Ga
atom 0.0149958626694892 1.8337203492092364 5.0927595402964636 Ga
atom 1.4898994227038516 10.0277288465480066 5.1873162952405991 Ga
atom 3.2115032675118629 7.2305689454581241 0.0228436028382296 Ga
atom 3.0578163787820531 7.1806339098927721 10.0824308496628827 Ga
atom 3.0773296011396511 7.2495237415132783 5.0391051186060984 Ga
atom 4.7544938888971773 4.5717006109761531 0.0647754462696983 Ga
atom 4.5993661985695855 4.3794316741074040 10.1684473552612520 Ga
atom 4.7167953852386963 4.5084352568061430 5.0719973677647481 Ga
atom 6.2936213376915111 1.9564050558951205 15.1845268208317190 Ga
atom 6.3334998542925902 1.7291723366398848 10.2277999489094658 Ga
atom 6.3243880573540139 1.7580751217121440 5.0813906620760632 Ga
atom 15.5618013197067935 7.1886844389871403 0.0617012934084843 Ga
atom 14.0595114465631372 9.8151885589208447 5.1303519518070599 Ga
atom 7.7763432298538717 15.2995640486088913 15.2078552490054353 Ga
atom 7.8152722292266432 15.3884955790586773 10.2150807806595445 Ga
atom 7.7915834535968402 15.2511162832073293 5.1616027914342828 Ga
atom 9.3233319056087325 12.6847780903106973 0.0995246423768372 Ga
atom 9.2662123194075399 12.6428837902340376 10.1082902814533480 Ga
atom 9.3497903364460360 12.6168404890910022 5.0714814419342931 Ga
atom 10.8035928215988957 9.8230746035556677 0.0878051891830404 Ga
atom 10.9421942926348077 9.9842612998984936 10.2401005419087987 Ga
atom 10.9622430502897927 9.8798195175179355 5.1036507015156651 Ga
atom 12.5140408903025833 7.2529707293797365 0.0204744530305356 Ga
atom 12.5120929443619300 7.2307257604400297 10.1378548761866210 Ga
atom 14.0607170004375011 15.2899969272727922 15.0892019150835335 Ga
atom 13.9649750350831088 15.2437857470016134 10.1450625848326048 Ga
atom 13.9912533064828040 15.2367887913618674 5.0524423555031435 Ga
atom 10.9182387106449230 15.3206905105143854 15.2305141542402307 Ga
atom 10.9393669743055018 15.4514550532189467 10.1225682645999822 Ga
atom 10.9078990156865245 15.3361955637994658 4.9539446358832464 Ga
atom 12.4538611361665659 12.5219227991150390 15.1854009784416579 Ga
atom 12.5067629931367623 12.6020478217713876 10.0917901596670188 Ga
atom 12.5113478771348738 12.5647709746769980 5.1404211368408648 Ga
atom 14.0471305352483853 9.9442896433938994 15.2049982077500658 Ga
atom 14.0588071572931224 10.0065683296425032 10.1987305966254365 Ga
atom 7.9094102094162180 9.9113690699092079 10.1181501576415602 Ga
atom 7.7860999078407103 9.8288335319882929 5.0509792584437090 Ga
atom 9.3706025642538755 7.2660683128728456 15.2211530391464080 Ga
atom 9.4294322613319110 7.3122309808288195 10.1086614643282466 Ga
atom 9.3924787161863144 7.2420928522320462 5.0523525558582216 Ga
atom 10.9909312864058251 4.5477416344932964 15.1243546911048856 Ga
atom 10.8579997100978272 4.5484252567327879 10.3499546399935998 Ga
atom 10.8024491817991404 4.4865864914685174 5.0783621641803647 Ga
atom 12.4328867613618144 1.8251294433262544 0.0567191747951339 Ga
atom 12.4306872273135518 1.8277210972871638 10.1401284600157293 Ga
atom 12.4006399232298818 1.7552673973895729 5.1666733924858628 Ga
atom 12.4275654530699331 7.2087063852664715 5.2135033331030289 Ga
atom 14.0398745756879819 4.5058590211915934 0.0008200043198932 Ga
atom 14.0532748836669441 4.5385723634981820 10.1842682818206587 Ga
atom 13.9631747723752575 4.6069405466062960 5.1726179933811105 Ga
atom 4.7330533884053514 15.3021854741098142 0.0691179280831398 Ga
atom 4.7601040809808017 15.3118522950319704 10.2106232122855651 Ga
atom 7.7282032169982191 9.9146867729965074 15.2165895669648403 Ga
atom 6.2419751629094087 12.5414175590484547 5.1572182947128518 Ga
atom 6.1986163625231043 12.5818816766053452 10.1132779801415218 Ga
atom 6.1987554989762925 12.7118523151657694 0.0510166635967240 Ga
atom 4.6220280534148221 15.4435825304285004 5.1233418516948879 Ga
atom 3.1208217683704769 8.9404570491964765 9.5248688844573515 N
atom 3.2873728522002144 9.1143932768544609 14.6037251578255933 N
atom 1.5582800032111865 11.7483015680721792 4.4515538420115890 N
atom 1.6771428399527655 11.7165771493532080 9.4753341558756574 N
atom 1.6093465768875175 11.6326355179041538 14.4443886499913887 N
atom 0.0080279012203450 14.4561079274786692 4.3969641612547008 N
atom 3.0197203115021152 8.9935076467487018 4.5479526166318252 N
atom 4.7818032944391575 6.3389871262291084 14.6304874617136829 N
atom 4.5785734003160021 6.1726665916525123 9.5378088093572959 N
atom 4.6376734020930641 6.3236112876550914 4.5656780306192122 N
atom 6.2772276439581116 3.7282258862115367 14.6488384844421109 N
atom 6.2168582324703783 3.5679567343744059 9.5265653401103592 N
atom 7.8942481922224284 6.2774541519686657 14.6122750009328719 N
atom 7.8355722420689737 6.3749866034574527 9.5660539225658230 N
atom 7.8609036199950362 6.4580816715468821 4.4457916924811691 N
atom 9.3840432599271573 3.5248788203977548 14.5852299336245341 N
atom 9.4030072085390710 3.5860461953402947 9.6108437984798574 N
atom 9.3754563802476376 3.5483981377841447 4.4744099213806621 N
atom 10.8843049631307540 0.9551093781357090 14.7591059946000662 N
atom 10.9430783563344125 0.8590497120639435 9.5838800290768198 N
atom 10.9062099828582717 0.8957603591489889 4.4426430228870748 N
atom 0.1043143713929914 14.4664274831336854 14.5949275278686113 N
atom 0.0302707619260533 14.5955855330505120 9.4909824903628461 N
atom 3.0121462698140529 3.5718378974680394 9.4998024423513563 N
atom 3.0840417800858786 3.6703392438026903 4.4064605708364866 N
atom 4.8217663814399163 0.8975319364674985 14.5030656306696333 N
atom 4.7379636729066279 0.8958461449758000 9.6061424774038304 N
atom 4.7102262206453842 0.9973862826007631 4.3925907959221906 N
atom 0.1504699432265724 3.7598263475751490 14.7256708391788784 N
atom 0.0347592886656271 3.6144556328878337 9.5926178129631872 N
atom 15.5233459927883342 3.6957072390735419 4.5023393108618999 N
atom 1.5966082152501933 1.0302781396022769 14.6645181529766635 N
atom 1.5151369387884310 1.0925667195002888 9.5557427889098623 N
atom 1.6480485393543551 0.8836609360403707 4.4152280180033880 N
atom 6.3255559031800388 3.6374510765170580 4.3823346273310255 N
atom 7.8099892057615028 0.8824494406901362 14.6264888390705714 N
atom 8.0450962326152826 0.9146139578396155 9.5091861829087190 N
atom 7.9051834642218290 0.7266674453169291 4.5162796331340997 N
atom 0.0394133679368005 8.9937823134740356 14.6331040803131174 N
atom 0.0526974851233181 9.0080838721176750 9.5210068035489446 N
atom 0.0132855025824459 9.1184135910725779 4.4824171907480279 N
atom 1.5745327968045650 6.4057926556361631 14.6686641234154571 N
atom 1.6173785584635025 6.2559343324870733 9.4450895520063209 N
atom 1.5565764195080947 6.2971541414278258 4.4385532344519243 N
atom 3.2857647131010790 3.6547069562251693 14.7708258209598977 N
atom 11.0060670888155290 11.6512321893274287 4.5138096778266155 N
atom 12.4698077296840388 9.0132243449734126 14.6646625533437529 N
atom 12.4923665937825579 9.0692269362397155 9.6975886157940785 N
atom 12.4867668488008281 9.0354486700374483 4.4438075157198984 N
atom 14.0779791415553710 6.3261310859467370 14.5994464584559758 N
atom 14.1016058887349072 6.3715773823008313 9.4671727300956867 N
atom 14.0538648745996575 6.3714858814985096 4.5079390404161686 N
atom 6.3477859580406859 14.3654701109037219 14.6399331895125115 N
atom 6.2593682523737737 14.3294798745119003 9.4908034896986990 N
atom 6.2912400259599632 14.3748118142111867 4.4894058221502249 N
atom 7.7485702084839092 11.7716472222973021 14.6644446668493948 N
atom 7.8493037798946226 11.6697611442637754 9.4373714286905308 N
atom 12.3793876729899193 14.4012570712312389 14.5386139779925561 N
atom 12.4867769933092525 14.4559002848737812 9.5093178016230961 N
atom 12.5083652552618592 14.3030799316171251 4.4821885915584021 N
atom 14.0392483239994466 11.6927486051680631 14.4415484517342367 N
atom 14.0632922893487198 11.7203395566521653 9.4222705163022020 N
atom 14.0762284765481454 11.6586205415441597 4.3771311555649168 N
atom 9.3383665114577177 14.4588058240737478 14.7322972423940186 N
atom 9.3532329947651540 14.5123200396886958 9.4385815719658037 N
atom 9.2969956419950535 14.3413988637828087 4.4536262161061098 N
atom 10.7920258531682070 11.7166770036148709 14.5996305340640831 N
atom 10.9587196487666123 11.7240784737352222 9.6027357211080169 N
atom 13.9348103965240337 0.8919337156329655 9.5403089733878641 N
atom 13.9771336854243291 0.9047344554246102 4.6201859200710986 N
atom 3.2136800768391973 14.4799369110769423 14.5661644361079592 N
atom 3.1702792961280393 14.4725117240671359 9.5533745196772148 N
atom 3.0705035100276001 14.3284376606415460 4.4883633064788242 N
atom 4.7506157733811731 11.8140527361182031 14.6623946751691037 N
atom 4.6343421244275440 11.7075239570004381 9.5152948655218559 N
atom 4.6755530501248721 11.7862461753607146 4.3850309915380379 N
atom 6.2478750641493779 9.0802048981324699 14.5452601721172972 N
atom 6.2834003156645011 9.0200416648709538 9.6216344474346354 N
atom 6.1623266514604511 8.9621605010967773 4.4989246318930629 N
atom 7.7115172370410479 11.6124144156015419 4.5366905450939772 N
atom 9.2258316805315044 8.9969034399641625 14.5283599895730529 N
atom 9.4426176231043311 9.0466360491691109 9.5513329941447296 N
atom 9.3041112637160133 9.0450081597544951 4.3767462209848276 N
atom 10.9336067199848603 6.3898954585927079 14.5764709728900232 N
atom 11.0149054679751313 6.2895786230580075 9.6065374205399845 N
atom 10.8982824979399613 6.2132271141765987 4.4270339362717106 N
atom 12.4215810525765598 3.6003060408646883 14.6788598047099548 N
atom 12.3736989777589343 3.6831428311829719 9.6009159203183412 N
atom 12.4147729670477602 3.5728236145956047 4.5643145316456852 N
atom 14.0216222744151189 0.9450547174919828 14.5999856757292523 N
atom 6.2339839179437169 7.1721039930250541 1.8779924146758873 N
atom 7.7827275648404299 4.4229041099295880 11.9935650369517681 N
atom 7.8542575121005420 4.6612622180653771 6.9521453266375293 N
atom 7.8418408667829569 4.4848372098038265 1.7739343869755773 N
atom 9.4190023389788369 1.7397236239602809 11.9857701358248132 N
atom 9.3608874751511753 1.7241975457586132 7.0864199895902624 N
atom 9.3540459807318204 1.8351349393982899 1.8971770116745668 N
atom 0.0834894248223832 12.5967075019464403 12.0584001683069140 N
atom 0.0001458673080348 12.6159877149896964 6.8712220296609576 N
atom 0.1826102541150157 12.6848408845558396 1.7738644959617729 N
atom 1.6559481919850514 9.8567405197119058 12.0566182048941020 N
atom 1.5335949676927301 9.9061481792842123 7.0677534236688935 N
atom 1.5346536462037355 15.3333164715661265 12.0746382901556171 N
atom 1.5314963903812562 15.2756019669909264 7.0539912237644007 N
atom 1.5129283219284970 15.2732501979833160 1.8530171147852785 N
atom 2.9843427057203491 12.6169475672531135 12.1116747635429540 N
atom 3.1718133568612141 12.5520621174355398 7.0435014971873127 N
atom 3.1763713500420758 12.6680532831143093 1.9614839424805366 N
atom 4.6672575810345425 9.9301894766912078 12.1363290730507885 N
atom 4.7030109791674581 9.9610261582444473 6.9384261874180400 N
atom 4.6740637199259059 9.8288776987400457 1.8971747181472858 N
atom 6.2309164427425738 7.1415706090028941 12.1436067752106869 N
atom 6.2533858249852985 7.3273790513445176 6.9733853638647769 N
atom 0.0365140768803145 7.2335200117862053 6.9671582366626588 N
atom 15.5726481651636881 7.1802342211097159 1.9722757086319498 N
atom 1.4827489991115070 4.4081924262769991 12.0654371951693768 N
atom 1.6226236922764654 4.5193583155012238 6.9145774487850220 N
atom 1.5341282013503115 4.5306252858770932 1.8818035147532122 N
atom 3.1565984882684583 1.7492484877248757 12.2176214242295220 N
atom 3.1256874449944592 1.8221262854310099 6.9956085115083324 N
atom 3.1624140731706243 1.8331515613873817 1.7476822295766903 N
atom 15.5660063089952416 1.6797564871996820 12.1737696569568890 N
atom 0.0517013983920627 1.7606647901809112 7.0612022294605241 N
atom 15.6215512924869113 1.7374521359411812 1.9717574737200205 N
atom 1.5468800381890677 10.0515990108266458 1.8965671625103824 N
atom 3.1503452951202906 7.1420025646514240 12.0952431110635388 N
atom 3.1634981838721385 7.2658766043585068 6.8614714345538355 N
atom 3.1777386006007240 7.2609152099340211 1.9247120214317459 N
atom 4.6904844733618978 4.4652191736819589 12.1558940751278435 N
atom 4.7327007036995505 4.5728407003934919 6.9952359327834781 N
atom 4.6279232314724350 4.5666114274067500 1.9637705289774614 N
atom 6.3669763968800162 1.8636863092162093 12.0375368437818953 N
atom 6.2323648743818012 1.8212626641632614 6.9435547679068179 N
atom 6.2952196975500536 1.7701792670007495 1.8442515635477505 N
atom 0.0260362915238880 7.2920660796276398 12.0350039196784380 N
atom 14.1087592029930988 9.9751158717049933 1.8017420727620514 N
atom 7.7110868349653812 15.3051443707560129 12.0554712285895675 N
atom 7.7697918837908624 15.2637191266869650 7.0578207785630047 N
atom 7.8111904365871085 15.2541739508167122 1.9308656100977237 N
atom 9.3682308039573776 12.6899006240096242 12.0773001054385745 N
atom 9.3939785647969138 12.6801061220629787 6.9241486259258656 N
atom 9.4541199677178263 12.7102335596201588 2.0595221090434861 N
atom 10.8809332106964387 9.9284406217815242 12.1100229445773770 N
atom 10.9297109087429902 9.7861979911197459 6.9507661067415976 N
atom 10.9161028947264214 10.0007012271338738 1.9762944197871473 N
atom 12.4926339713472263 7.2836658323445347 12.1041757452493126 N
atom 12.4782236182060728 7.2157500430018313 7.0986746293186700 N
atom 13.9787511515442660 15.2932818207882075 12.0173177360758210 N
atom 13.9534913667535019 15.3940802364130462 6.9749128215053258 N
atom 14.1982841948642147 15.3101793505008406 1.8358944417099572 N
atom 10.9494578220376670 15.4583584500928755 12.1272712615688629 N
atom 10.8010361198619336 15.3706501400320672 6.8402694511084414 N
atom 11.0128831426709173 15.3073337352837697 1.8709321978936893 N
atom 12.4995422379623289 12.6302684045244789 12.0569686864491921 N
atom 12.5609839566969175 12.6114432135795393 7.0695674353565208 N
atom 12.5986695775816209 12.5454446432815434 1.8044185821072440 N
atom 14.1211772385460979 10.0136140753731908 12.1613751950705922 N
atom 14.1163169686600298 9.9677536450828228 6.9956759867392995 N
atom 7.6567590675258055 9.7850839987626728 7.0245161675914920 N
atom 7.8952560841556396 9.8583237270901840 1.9227321961528885 N
atom 9.3699767949539350 7.1900656111150072 11.9778176772895115 N
atom 9.4135780597182404 7.1787141353361719 6.9879007288812751 N
atom 9.3910234701136037 7.2383566574367579 1.8714104937280929 N
atom 10.9555136708326160 4.4388811353915516 12.2450515611987658 N
atom 10.9152160901348161 4.5381490413767418 6.9665406513117416 N
atom 10.9698581339262500 4.6067206556991502 1.8394086814754003 N
atom 12.5334358381182192 1.9131661891142038 12.0553579324266025 N
atom 12.3257186589505281 1.8267826426944009 7.0042765117176522 N
atom 12.5451820836749821 1.8043291616169750 1.8691549422630296 N
atom 12.4389064246537799 7.3045092710733712 1.9215148277485312 N
atom 14.0750868400369367 4.5687728835540353 11.9744231934925054 N
atom 14.1058233922162959 4.5516885001464873 7.0441497850322214 N
atom 14.0912807362605434 4.6402219588152178 1.9704840097896241 N
atom 4.6773415857365377 15.3199365054767807 12.0548359751213461 N
atom 4.7081582187926241 15.3558437077669865 7.0691458569059771 N
atom 4.6260355899976515 15.2961788605525797 1.8818448031972350 N
atom 6.1751853239425145 12.4864189237127796 12.1665079139271821 N
atom 6.2172394569873699 12.6161233980337428 7.0359848364640856 N
atom 6.3302026731958421 12.7381847180060586 1.9665073314297929 N
atom 7.7995821682147692 9.8782422578470559 12.0878663129377930 N
