#===============================================================================
# Created using the Atomic Simulation Environment (ASE)

# Thu May 11 08:59:50 2023

#=======================================================
lattice_vector 16.0100851999999989 0.0000000000000000 0.0000000000000000 
lattice_vector 0.0000000000000000 16.6381685999439100 0.0000000000000000 
lattice_vector 0.0000000000000000 0.0000000000000000 15.6179127599999905 
atom 0.0376791031508942 14.7601015606041024 2.6352712134192746 Ga
atom 1.6104508649594753 11.9504549325037583 12.9254425588972950 Ga
atom 1.7386930451546727 12.1356609074725448 7.9112089211887460 Ga
atom 1.5432739704174356 12.0401032254404576 2.5819745346577436 Ga
atom 3.1872362303964845 9.3368824077482380 12.9413635754642513 Ga
atom 3.2753612759828923 9.2799565177805210 7.8498795558177950 Ga
atom 3.0525922044304847 9.3657230870591857 2.7050301681838298 Ga
atom 4.7114565517521649 6.6600242931203537 13.0663989609921529 Ga
atom 4.8807102760655328 6.6369761612882661 7.7226719778657742 Ga
atom 4.6834253357493534 6.5950548628638792 2.6848197375011673 Ga
atom 6.4005155353211158 3.7014489902229113 12.9834693731052688 Ga
atom 6.4327122834699741 3.7071487120893298 7.7043900033093156 Ga
atom 7.8553503875885813 6.3272303339246152 12.9152358498520066 Ga
atom 8.0418540131152572 6.5231953935920002 7.8266999096678616 Ga
atom 7.7841616921399375 6.4706444589435206 2.5516756030704033 Ga
atom 9.7144505660735945 3.5959551814077764 13.0054122476615941 Ga
atom 9.6462223204676647 3.6045610541794746 7.7511286414389575 Ga
atom 9.5916731824715811 3.6414517956031860 2.3662249980792049 Ga
atom 11.2614596430508538 0.8416814840933808 12.7033032927186706 Ga
atom 11.2485833877468266 0.8368629118991004 7.7922196537045476 Ga
atom 11.2855030318779050 0.9585640476040049 2.6195139272421430 Ga
atom 0.0581445927088262 14.6697991234499376 12.9457005533803926 Ga
atom 15.9721408990209426 14.8138080785676198 7.9487434773464596 Ga
atom 3.3113575828629971 3.7511289756525485 7.8271270867696670 Ga
atom 3.3516081083156863 3.5966532972705512 2.5660893849210575 Ga
atom 4.7791251293970491 0.8306337901292343 12.8123628044719737 Ga
atom 4.8529235301198010 0.7686479479616467 7.7397934863243609 Ga
atom 4.7566364018867597 0.8729826842775619 2.7932905736786156 Ga
atom 15.9478760671392852 3.7387118140837607 12.9254593610254833 Ga
atom 0.1571667591604598 3.8047848332795677 7.7742712156322122 Ga
atom 15.9355734832211322 3.7520995790061171 2.6014280379069876 Ga
atom 1.5485983353654429 1.0118144159433986 13.0609780730804630 Ga
atom 1.8545490056257468 0.8771162157000525 7.9118653063726212 Ga
atom 1.6443606761976772 1.0020404568737635 2.6188825095696897 Ga
atom 6.3862686874066679 3.7836415727724888 2.4576539292539414 Ga
atom 7.9678206823471847 1.0564607809479327 13.0157578802355136 Ga
atom 7.9652849586931245 0.8567588487428425 7.7475000701939623 Ga
atom 8.0508526959678957 1.0962132378002398 2.6129009979834321 Ga
atom 15.8844456350893672 9.2501278643749938 12.9934006055399589 Ga
atom 0.0863910849287815 9.2690234325465823 7.7906055806437688 Ga
atom 0.0280232295812210 9.2217908882709541 2.7540805032958362 Ga
atom 1.6380727577381509 6.5112779830913956 13.1034927084019213 Ga
atom 1.7902565254410634 6.4268960764446348 7.8168053339782677 Ga
atom 1.7199235360912011 6.3651572244321688 2.5674632879345016 Ga
atom 3.2231128351925822 3.7380746064429426 13.0638403584014782 Ga
atom 11.1754431247274031 12.2976628854705350 2.7232703842432802 Ga
atom 12.7423977918206894 9.1236496206742359 12.9497118596840437 Ga
atom 12.7429786954362676 9.2535541086964894 7.7713100791334808 Ga
atom 12.8952978345740679 9.2706575511468010 2.6017418147545395 Ga
atom 14.3774974203823405 6.5791960670120497 13.2108882783145170 Ga
atom 14.4376254539854454 6.4187310848089538 7.6934894609288769 Ga
atom 14.5596808181390749 6.4009608035361572 2.5388553162280014 Ga
atom 6.3723285062165580 14.7483424913793808 13.1963790266646814 Ga
atom 6.4580951131994739 14.9015972771996807 7.7715740497761443 Ga
atom 6.2171443771232937 14.8021848815971744 2.6711367825466672 Ga
atom 8.0013961314799147 12.0293158316956177 12.9173664639999899 Ga
atom 8.0684995289985242 11.9514123219620902 7.7962271820361941 Ga
atom 12.7849489183976655 14.7603306629659983 12.9147923070430330 Ga
atom 12.8205654538761937 14.6752826803180145 7.8180511243970408 Ga
atom 12.9163860358441482 14.7665813807041832 2.5918205028355263 Ga
atom 14.4092572643668166 12.0956353555374676 13.1344127134094180 Ga
atom 14.5406947633132955 11.9192373067452397 7.6568176814985049 Ga
atom 14.3759943672278006 12.0237418823008451 2.4780358960844162 Ga
atom 9.6445881342479449 14.8319921340576766 13.2060507725306344 Ga
atom 9.5416453040600366 14.6577539306273508 7.8476653269666965 Ga
atom 9.4256142363312083 14.8734958394157779 2.4308313087040707 Ga
atom 11.2483147235925678 12.0606507815968573 12.9282205754788642 Ga
atom 11.1572398830666284 12.1397726110365678 7.8186240105481231 Ga
atom 14.4824576204763975 0.8051466344442129 7.6877751198677418 Ga
atom 14.3950425086018718 0.8869425428749314 2.7114560332727393 Ga
atom 3.2499483949065695 14.7410225125776435 13.2024401775945908 Ga
atom 3.1900330099507102 14.6372653442878686 7.9934469652577729 Ga
atom 3.0851217840937726 14.8312442508977966 2.6266475762847827 Ga
atom 4.8168911904659648 11.9925999148764344 12.9062921180487962 Ga
atom 4.8973113640044303 12.0730245886316734 8.0090574562730232 Ga
atom 4.7104199651771586 12.0671740916230021 2.5548510187517146 Ga
atom 6.4635974612452864 9.2593073835859432 13.0995696273688473 Ga
atom 6.3947419243308747 9.2723815331440154 7.8544249769565306 Ga
atom 6.2925300902941874 9.3707118268482468 2.6933180750585342 Ga
atom 7.9789252852533856 11.9433800169953290 2.6094165162026637 Ga
atom 9.5893277402636805 9.2134257996013513 13.0270813114367012 Ga
atom 9.7067298718956501 9.1814095407314440 7.8643226161153308 Ga
atom 9.6180869846136492 9.2294645035582903 2.5498635677374519 Ga
atom 11.1431117546071246 6.5164744183478520 13.1017911676933299 Ga
atom 11.2739722774280597 6.3555753634429992 7.7376264229964624 Ga
atom 11.1195139259555162 6.4720611920781623 2.5685302332540605 Ga
atom 12.7542798367142005 3.6830724136923410 13.0509512398803960 Ga
atom 12.8301163364883291 3.6679496567713388 7.7138792968487566 Ga
atom 12.8238369642403018 3.5037677270816570 2.5244140369163350 Ga
atom 14.3988656968275954 0.8640807652939131 13.0597962603026083 Ga
atom 6.3927582620531407 7.4748812819379671 5.2780830054710952 Ga
atom 7.9001507467500884 4.6485414752030660 15.3509811764933204 Ga
atom 8.0365200788547924 4.6217179109765869 10.2954781783682083 Ga
atom 7.9712583878046237 4.6671348164803890 5.0985770272383091 Ga
atom 9.6165819373751411 1.7622239461706652 15.5434128798995470 Ga
atom 9.5116032815181626 1.9415421214627637 10.3828173587838837 Ga
atom 9.4213850775358381 1.9420512901009135 5.1114808958682936 Ga
atom 0.0114094313480733 12.9542138494297969 15.6006549111546349 Ga
atom 0.0806205114327427 12.7530194860233426 10.3085418621334668 Ga
atom 15.8747216745115463 12.9506041152522240 5.1589888039190592 Ga
atom 1.6500019909043928 10.1371468016840680 0.1104222648965942 Ga
atom 1.3764807174110516 10.1870628302614996 10.5530659485804197 Ga
atom 1.4062202665628856 15.6921257085995975 15.5781616064317880 Ga
atom 1.5963839172571979 15.6917044977532232 10.5219207782733140 Ga
atom 1.5991353136745168 15.8591971515357510 5.3206800679202022 Ga
atom 3.1818069006371701 12.8402288878718736 0.0886937073303774 Ga
atom 3.4510126411046396 12.7865445301639884 10.4361418051824177 Ga
atom 3.1542465623618767 13.0989060043167278 5.1484231914563559 Ga
atom 4.7589602672162208 10.1065479149634569 15.5599240568227977 Ga
atom 4.6848952616050408 9.9630554712020540 10.3684748593102753 Ga
atom 4.8457990441335745 10.2601639404002807 5.2138618131401167 Ga
atom 6.4303551248049100 7.5648154336764089 0.1343188449720049 Ga
atom 6.2829850981223654 7.4436755105647725 10.4142493533327816 Ga
atom 15.9198618255646593 7.4317087359226965 10.4585632085765923 Ga
atom 0.0021515362114950 7.3957950262575665 5.1507900864560821 Ga
atom 1.5994637768594546 4.8002445500085553 0.0303642869038662 Ga
atom 1.5063845966104807 4.5935416662398154 10.4340397118940071 Ga
atom 1.6433988835800342 4.4689249194093845 5.1757641569553288 Ga
atom 3.2843030071563968 1.9956953407617215 0.0234069189753566 Ga
atom 3.4171614460408040 1.8876510153871113 10.4955966206305824 Ga
atom 3.2740801883610451 1.8531040032129753 5.2459114040198482 Ga
atom 0.0524943107322565 1.8675034112414906 0.0419449377248525 Ga
atom 0.0116087023839066 1.6666585806774075 10.3782403854094607 Ga
atom 15.9705586900898897 1.8023929576113105 5.2109838765143062 Ga
atom 1.5396538199644760 10.1972886349259202 5.2840523679112854 Ga
atom 3.3248795126226045 7.4409267822039906 0.2120761186690057 Ga
atom 3.0095147996209430 7.4351055660846397 10.4233904361824052 Ga
atom 3.1278419793968251 7.4570157307714888 5.2161690115093711 Ga
atom 4.8056661038617969 4.7136810587603035 0.0239104395381676 Ga
atom 4.7515555162294811 4.5576222902656793 10.5069727895840117 Ga
atom 4.8456835271343497 4.6540396197536742 5.2445627966312731 Ga
atom 6.3681818656639742 1.8623254521697901 15.6158155234084433 Ga
atom 6.5669585495326972 1.8109737411920936 10.3746007560172195 Ga
atom 6.6066037940698656 1.8705650820052124 5.2592196716936987 Ga
atom 0.0285452301356353 7.4539332249466579 0.0468267616114081 Ga
atom 14.3382117753538303 10.1681627177817919 5.1178265818386510 Ga
atom 7.8562422155594582 15.8068736241047993 0.1000905587947126 Ga
atom 8.0902627658358863 15.7485256335152748 10.3973993746719060 Ga
atom 8.0561969132305489 15.7372872880536043 5.1232275495563169 Ga
atom 9.7363386746839762 12.8363889395052571 15.5951186147161174 Ga
atom 9.6490651248921608 12.9117300424547068 10.3164202854677729 Ga
atom 9.4509872922639211 12.9724339857476529 5.2286637332614117 Ga
atom 11.1797962781330025 10.1381158742439315 0.0778256980872209 Ga
atom 11.1835751090528230 10.2921716028765324 10.5032753814447357 Ga
atom 11.2722777509964338 10.2436970117017907 5.3372505329450934 Ga
atom 12.8165644827671041 7.4048776912388385 0.1550730608416084 Ga
atom 12.7948823986246492 7.4338850898189062 10.3772150201466360 Ga
atom 14.3948191119241411 15.8162286942402268 0.0330963284507548 Ga
atom 14.3483646394195414 15.6507965021174371 10.4859876156956613 Ga
atom 14.4024571700572537 15.7102059073098683 5.2713571309185490 Ga
atom 11.1180333789756869 15.6578559294701769 0.0546648654728773 Ga
atom 11.3435450952303842 15.7189615719752727 10.2874665911764431 Ga
atom 11.0746752316148882 15.6907556718225081 5.0801136246915988 Ga
atom 12.8417270682566826 13.0046500563108829 15.4776458909460857 Ga
atom 13.0309184112036576 12.9621240748675906 10.5298558888966625 Ga
atom 12.8392638649232804 12.9611316061293333 5.1978854118149149 Ga
atom 14.3421331665345804 9.9987685611886210 0.0142235321368865 Ga
atom 14.1673730523384531 10.2288416442555299 10.4024737612279470 Ga
atom 8.0441789769976868 10.1772429966094311 10.4523339472382144 Ga
atom 8.0051990476113613 10.1611757571228427 5.2582723690225368 Ga
atom 9.5121926872902876 7.2852823692028412 15.5126566505249368 Ga
atom 9.6425934581627057 7.2980727746311347 10.4330942490323331 Ga
atom 9.6727016020684324 7.2890936641677015 5.1636207846433040 Ga
atom 11.1525822369440792 4.6663239230687683 15.4978734602895329 Ga
atom 11.3295317971697553 4.5953057472071723 10.4222024145320713 Ga
atom 11.2304406459652579 4.5399426242229639 5.0230461817625587 Ga
atom 12.6974022604638819 1.6326504836701885 15.3732554323269373 Ga
atom 12.9661671452390728 1.9118046559858941 10.3022572569203223 Ga
atom 12.6412325377816650 1.8275423407858824 5.3558600070696931 Ga
atom 12.6618100520472492 7.3749426161172815 5.1680451816227455 Ga
atom 14.3790620623439480 4.6183111731953730 15.5620569119522880 Ga
atom 14.4491836521787107 4.6534222964665162 10.5201511598835733 Ga
atom 14.5582077153802469 4.5932110533306432 5.1342756743218709 Ga
atom 4.7532245580375507 15.7804477303842212 0.0767052068991671 Ga
atom 4.7360317986698872 15.6187404246802792 10.5688444923635778 Ga
atom 8.1201137165266655 10.1922979678556000 15.4883087771905927 Ga
atom 6.4323198747028068 12.8798902416067573 5.1822806576946032 Ga
atom 6.5409365221579412 13.0570602663981798 10.4930794321666241 Ga
atom 6.3677834113405432 12.7602219099702001 0.0210447580303364 Ga
atom 4.7934968887129985 15.6510643318559222 5.2958278930274538 Ga
atom 3.0785045986990038 9.2434501312794772 9.6559312927040803 N
atom 3.1707692000057821 9.1796130547820862 15.0850223449515415 N
atom 1.4391118761128345 12.1027151181773363 4.6238369999200977 N
atom 1.7415933915850470 12.0531357007215956 9.7078765252850925 N
atom 1.6985974658742666 12.0654350256681155 14.8909594985533431 N
atom 0.0581816312746937 14.8790110807083682 4.5969822216749172 N
atom 3.2121966261572648 9.3897181331368476 4.6897876016664339 N
atom 4.8502045456150116 6.5880737779395648 14.9737100196550479 N
atom 4.5848860883571287 6.5208675591441061 9.6905064573096613 N
atom 4.8262881199918697 6.5053045798494162 4.5556599277866479 N
atom 6.3891657908862163 3.6927520761412604 15.0486798455894650 N
atom 6.3537847940347714 3.6231497666449188 9.7822277437065992 N
atom 7.7863865652283808 6.4792012515172397 14.8209225911344475 N
atom 7.9479118352354821 6.5299026379497525 9.7483946282868086 N
atom 7.9407116218959208 6.5455574931625344 4.4015751373033201 N
atom 9.5990199816301249 3.7119223227073697 14.9023538617997726 N
atom 9.6930807897082953 3.8494700003386164 9.5964727608275489 N
atom 9.5907083454324926 3.7291797092870516 4.2516490787680095 N
atom 11.1570202139578001 0.7571937672826138 14.7831603074503075 N
atom 11.1295040438622355 0.9912126112216330 9.7702386553196980 N
atom 11.1154967048662687 0.8356310828948144 4.5000418179195227 N
atom 15.9764758081821441 14.7277902791647719 15.1098502583153174 N
atom 16.0030894840601832 14.6868935128639038 9.8509868096208457 N
atom 3.1234431124724420 3.7360905953843093 9.7163146266270051 N
atom 3.3011986570511413 3.6824149789805403 4.4745977886329626 N
atom 4.8700916181618261 1.0132605850459060 14.8492461028403522 N
atom 4.9080067024146903 0.8248612631837809 9.6797808837419836 N
atom 4.8315627891389434 0.8463603742772843 4.6935902758858496 N
atom 0.1512890703113872 3.7458019119012391 14.9426638833800265 N
atom 16.0052907910965097 3.6057828565378607 9.7855883179540175 N
atom 0.1477932047055653 3.5825007488332887 4.5367245518972759 N
atom 1.5638777858418962 0.8208922642630957 15.0421183782467978 N
atom 1.7996702309722428 0.9797330866093444 10.0104249160121199 N
atom 1.6418654659273300 1.0532932687174874 4.5679112910091897 N
atom 6.5350534319361522 3.6119074066635353 4.5938789619208080 N
atom 8.0441698137038724 0.9536611805721610 15.0527966997355520 N
atom 7.9996249454979749 0.9073460885569677 9.6664168849598706 N
atom 7.9771198406826844 0.9048071401126445 4.5069488246384362 N
atom 0.0615288562642784 9.2536631020853939 15.0034322504012785 N
atom 15.8424034517182548 9.4361601952610243 9.8472158244041150 N
atom 16.0099636887939738 9.2914261304585946 4.6400222686569634 N
atom 1.7276872332135813 6.5205450997621357 15.0798681528997474 N
atom 1.3985284529400099 6.4395801231779526 9.7373022286514619 N
atom 1.6698563605521786 6.3500493148877242 4.5199100607666072 N
atom 3.1746321345880482 3.8806237330730871 15.1291932542022334 N
atom 11.1149164257323889 12.1293239732467235 4.6348950561676041 N
atom 12.8092014737624833 9.1178605364042120 14.8881273772120526 N
atom 12.7967532265245367 9.2182422702789690 9.8071084603302339 N
atom 12.8184312874201538 9.1422015197323194 4.5117406966091984 N
atom 14.3906979768085463 6.5467367765136837 15.2106975521655912 N
atom 14.4105241015943442 6.4562223428856074 9.7092145404217245 N
atom 14.3835841483208959 6.4691542144291070 4.6629698365903893 N
atom 6.2459286854193428 14.7006420918979295 15.1189423956184008 N
atom 6.5263492807072945 14.7474698987764192 9.9622344055786254 N
atom 6.3372869238007095 14.8464642042511805 4.6076765815859204 N
atom 8.0368745749920532 12.1636592907972698 14.8944135880639195 N
atom 8.0738839490612477 11.9971651076462145 9.8194610989063644 N
atom 12.7885251453546296 14.8681323315771987 14.8436166882373843 N
atom 12.8055214042547583 14.7095884818948957 9.7550943347856958 N
atom 12.7672683440614048 14.8347058166100325 4.5246798660361565 N
atom 14.3916443544798831 12.0690755230645532 14.9281512110310626 N
atom 14.4067994317805983 12.0324922368980687 9.6160241050488668 N
atom 14.3610930816443005 12.0089745784925661 4.3521495535946011 N
atom 9.5670017217387286 14.8537720062468406 15.0212111307833105 N
atom 9.5574724151358446 14.7572472781700128 9.7218673563946609 N
atom 9.5714686274216660 14.7758755868124556 4.4146138410159761 N
atom 11.3479457220776307 12.0459719747608371 14.9636833475757740 N
atom 11.2719568667866632 12.0630709624809320 9.8168010715064842 N
atom 14.3656443025613605 0.7141433075712027 9.6269677167071208 N
atom 14.2827774494445077 1.0022370743062585 4.6864664316998104 N
atom 3.1536824218163839 14.7279571845041843 15.0259352432868063 N
atom 3.1965981526319194 14.6832566981429000 9.9240980656785585 N
atom 3.2216313558555143 14.9949701430074445 4.5616756966648158 N
atom 4.8046122396223065 12.0633964452066493 14.9358933213785061 N
atom 5.0156187446233096 11.9429793500828776 9.7968582397203345 N
atom 4.7984655099056743 12.0221096737911672 4.5077000230486544 N
atom 6.5241846488877888 9.2316358919040571 15.0629924317544397 N
atom 6.3948764844068267 9.2528014616291241 9.7823455566167183 N
atom 6.3292300804120254 9.3028814685044434 4.6286530468684868 N
atom 7.9272935363570891 12.0337705803539770 4.5260107972592660 N
atom 9.5399955879865868 9.1588395253723824 14.9886424641409555 N
atom 9.6436511552017024 9.2658749298497014 9.9856018056748788 N
atom 9.6058215494655048 9.2596824462601610 4.6181713068149222 N
atom 11.1507012572681852 6.5357397234127230 15.0509471719056656 N
atom 11.2510453244027957 6.4551206703090704 9.8630228789870387 N
atom 11.1313822838893106 6.4522438246287619 4.3865865339282735 N
atom 12.7322390626771984 3.6565496853569881 15.0052551763607749 N
atom 12.7883893113610014 3.7429928140421014 9.5609724910876484 N
atom 12.9552088854431258 3.6353687815588165 4.4402496421627573 N
atom 14.4892970567235881 0.8178866873374682 14.9544348893806713 N
atom 6.1422404270306634 7.5205700264809083 2.0152743966391058 N
atom 8.1287701728204311 4.5098930957472332 12.3109412643480685 N
atom 8.0630454558227207 4.5750006309765876 7.0652764032954680 N
atom 7.9867532683530591 4.6576252687045621 1.7720413366492405 N
atom 9.5852441123955874 1.6856532914800715 12.3639895138210001 N
atom 9.5866787349293663 1.7326222024553368 7.1129805630830676 N
atom 9.6163514126727101 1.8242550423038517 1.9052417776728998 N
atom 0.0692634510157021 12.8535736856222798 12.2250116789126455 N
atom 0.1257461687769849 13.0298571763621656 7.1877849142945305 N
atom 0.0158166733606383 12.9903558897186642 1.9470600083123082 N
atom 1.4181750659877883 10.1423836420967248 12.4754125028354306 N
atom 1.6052231900917313 10.3047323934514008 7.2206726097936320 N
atom 1.6399447668704483 15.7868129564146464 12.5388122542503879 N
atom 1.5389864793609440 15.7284133387353240 7.3192923701899799 N
atom 1.6665546406334295 15.8448256154947416 1.8954218068474873 N
atom 3.2136104393405720 12.8235028047187605 12.3347687201475793 N
atom 3.3218262638248373 13.0163794567488456 7.2716121948991006 N
atom 3.0530041180654326 12.8671281473735242 1.9824168525860408 N
atom 4.7776139046077697 10.1922806031013380 12.3210017900037059 N
atom 4.8427618539655066 10.0354770262635800 7.1261861680297791 N
atom 4.6387808045162116 10.1074213055181747 1.9412555983351922 N
atom 6.3660142351286151 7.3266167223948191 12.3308227090672560 N
atom 6.4286944234537682 7.3681264072987434 7.1620573310529414 N
atom 0.1097306314194786 7.4277521899296453 7.0968119181122038 N
atom 0.0577261160056984 7.4477902341131292 2.0798646769528846 N
atom 1.5885478063178908 4.7448569209935876 12.3437072665010774 N
atom 1.8600164793539731 4.7151442074760803 7.2203382969454086 N
atom 1.6311590477782734 4.5847064383919092 2.0302039793639604 N
atom 3.3478622310221171 1.9264385495354608 12.4276809221406737 N
atom 3.3600518326554916 1.7358195766854358 7.1032176738730728 N
atom 3.2743569964945425 1.8499749553427847 2.0393786903613087 N
atom 15.9195572829860605 1.9010548861105803 12.3861633141655432 N
atom 0.2374047469292586 1.8169421072621377 7.1496647161823077 N
atom 0.0858057304776575 1.9849474778228495 2.0081612888030578 N
atom 1.5589114323220108 10.1931690442941338 2.0741808386528948 N
atom 3.0996835937839231 7.5145579335234984 12.3938275627914223 N
atom 3.3109637729825101 7.3898565444661832 7.0998842034270231 N
atom 3.3094472822147640 7.5004208175326808 2.0965370132951411 N
atom 4.7830538809056353 4.6288270359615904 12.3018658641453360 N
atom 4.9246985929470792 4.7113865658520968 7.2378662544219798 N
atom 4.7798653976672760 4.6794251921822889 1.8353789905702436 N
atom 6.3385854342070953 1.8551119013252260 12.2273833504061002 N
atom 6.2964501240121544 1.7637555608823468 7.0946891420773683 N
atom 6.4027181052113509 1.8635555627529099 1.9928959813894063 N
atom 15.9439630874898324 7.3733353207635322 12.5476723326050976 N
atom 14.5054724662887455 10.1068726211104725 1.9078229960977846 N
atom 7.9841453093408887 15.6574984335370893 12.2873981132043344 N
atom 8.0254409277170513 15.7103311937962467 7.1279653408905217 N
atom 7.9414982997120172 15.7561874941945543 2.0220562354920624 N
atom 9.6330300455578968 12.9120197200274447 12.3433103575885834 N
atom 9.5874196904662821 12.8628878923910026 7.0712111092775407 N
atom 9.4660068003627664 12.9795281737993253 1.8645596684872932 N
atom 11.2367808810744219 10.1155582995694751 12.4970017550105226 N
atom 11.1774220059271610 10.2609550065130186 7.2672142133826068 N
atom 11.1749560819545106 10.3464368394658504 2.0641698881249759 N
atom 12.7289559506580066 7.2772896468504760 12.3186807238126725 N
atom 12.8327847461880769 7.4214736740095413 7.1336542740016657 N
atom 14.3838294551404342 15.7299234638012440 12.4679825879959463 N
atom 14.3749049383630805 15.7803669283263464 7.2035225885110457 N
atom 14.4459831130959575 15.9502690824250966 1.9739888528179581 N
atom 11.2578406781589511 15.6967175843204796 12.2399237705368034 N
atom 11.2363926086166739 15.5581100428776118 7.1990897164270455 N
atom 11.2100827345243470 15.7441502527755386 2.0369029819988165 N
atom 12.7267801809805334 12.9311557495720688 12.2537877270595921 N
atom 12.8693142178488529 12.8379985707911590 7.0677120485300495 N
atom 12.8321348673685307 12.9142570867745654 1.8586571331509047 N
atom 14.2924884433211208 10.2822788175540154 12.4087719556132701 N
atom 14.3706136745479434 9.9596067611632915 7.0271725067296860 N
atom 8.0885353804895139 9.9714485124857308 7.2119111628779180 N
atom 7.9120190688422634 10.1940609972873730 2.0484689059909598 N
atom 9.5322877663840000 7.2147761062369966 12.4104211317810442 N
atom 9.7095475044640125 7.3946966070008688 7.1218261735876620 N
atom 9.5159257781493256 7.4425127961599546 1.8086080023815720 N
atom 11.2797867876064810 4.7440367759449549 12.5512616702827682 N
atom 11.1643685709248519 4.5665902320270080 6.9534435238748733 N
atom 11.2801246569620677 4.6427033729707983 1.7932563952001350 N
atom 12.8367286277065205 1.9247912188177922 12.3541314769618857 N
atom 12.7960997285957720 1.7282782112378920 7.3290035279982506 N
atom 12.8102285043074797 1.8128834268109517 1.7661101933503047 N
atom 12.8317756353153438 7.4732496062273706 2.1515725929456817 N
atom 14.3049854386261970 4.6854658966217544 12.5027349985906184 N
atom 14.4844761624730420 4.5600019055265717 7.1998313819677087 N
atom 14.3905216076554083 4.6034354544517395 1.8860746088875460 N
atom 4.6713412861786523 15.5295937705447642 12.2502830590428697 N
atom 4.7077733009290794 15.5859283700626143 7.2206808223812242 N
atom 4.5282756023867607 15.6397381061391698 2.0644325673293045 N
atom 6.4153731767565887 12.7767150959154439 12.3284817389534087 N
atom 6.4554218367000731 12.8391333177333351 7.1527396307647750 N
atom 6.3404086973782308 13.0626724697292911 1.9498581909304058 N
atom 8.0715160807900617 10.2247307589065564 12.3589349822167165 N
