#===============================================================================
# Created using the Atomic Simulation Environment (ASE)

# Thu May 11 08:59:11 2023

#=======================================================
lattice_vector 15.6273739999999997 0.0000000000000000 0.0000000000000000 
lattice_vector 0.0000000000000000 16.2404434541285205 0.0000000000000000 
lattice_vector 0.0000000000000000 0.0000000000000000 15.2445761999999903 
atom 15.5390057330297147 14.4436537235259497 2.5158866362961212 Ga
atom 1.6494870385087732 11.7155058715154130 12.6365422574568917 Ga
atom 1.5715742383136526 11.7780745369317810 7.5807888455432000 Ga
atom 1.4935858595532652 11.7907308693909485 2.5663135984333012 Ga
atom 3.0838851968029175 9.0501321617033543 12.6967638121939128 Ga
atom 3.0613831894232315 9.0864971488121800 7.6173592440748292 Ga
atom 3.1717601093784840 9.0863630587708197 2.4762701825396150 Ga
atom 4.8030763969584127 6.2944565904829757 12.6249277382189771 Ga
atom 4.7618747302468627 6.2282913425823345 7.5710094200566846 Ga
atom 4.5158871801619771 6.3000487157035199 2.5749646150711176 Ga
atom 6.2743638075323300 3.6795632526153059 12.7511349535012108 Ga
atom 6.3152650558114392 3.5608999698292694 7.5931661965892605 Ga
atom 7.7701547568390907 6.3251384698148048 12.6658180302756271 Ga
atom 7.7557427614287695 6.2533185811684300 7.6903092958036456 Ga
atom 7.8191562882916426 6.3303698756998132 2.6226796556923611 Ga
atom 9.5038042495771080 3.6516638177923446 12.8210128911371211 Ga
atom 9.3541681013128883 3.5883397752110762 7.5726316895237380 Ga
atom 9.4613908700088469 3.6341421541573062 2.6802616770470657 Ga
atom 11.0711733960637702 0.8546934851568884 12.6872187240494103 Ga
atom 10.9216541002360987 0.9963284290303769 7.5459243315803910 Ga
atom 11.0148953089834123 0.8889818380018389 2.5587424822903633 Ga
atom 15.5881285367363382 14.4765706615435228 12.6743875918292446 Ga
atom 15.5628720596607142 14.4691489689220507 7.6676661440259233 Ga
atom 3.1873570466208410 3.4580903950056050 7.6671224203891510 Ga
atom 3.2203403630130234 3.6467806364090585 2.6146719348594623 Ga
atom 4.7110882071682108 0.8715579916924446 12.6686752190672429 Ga
atom 4.5816969547788098 0.9995268453795420 7.7643482773910417 Ga
atom 4.7212405149006935 0.9127013215061905 2.4594057661944122 Ga
atom 0.1442646190387556 3.5433181387024493 12.7118403814299814 Ga
atom 15.5469093162096996 3.6246031564789889 7.6197855805612091 Ga
atom 15.6199112499487303 3.6243715646214145 2.5911199916987222 Ga
atom 1.5306979766025137 0.8216335885888646 12.6589647942280461 Ga
atom 1.5156244916516659 0.9348968192867899 7.5607897259318415 Ga
atom 1.6229670386689679 0.9171484340082430 2.4839972248497477 Ga
atom 6.4060202687785646 3.6867261833804030 2.5579993099442437 Ga
atom 7.7384020443973274 1.0474806010193356 12.7421200901418441 Ga
atom 7.7768641262077258 0.8505988227679344 7.7014273043946515 Ga
atom 7.8309960031454109 1.0101794808880022 2.5621225110597847 Ga
atom 0.0104747118604602 8.8783140379706005 12.7711642966421035 Ga
atom 0.1171523531371780 9.0530955428865401 7.6966659256930834 Ga
atom 15.6162663365767997 8.9643233727666356 2.5276576855430100 Ga
atom 1.6182067787472694 6.3036389839587574 12.6385592692516813 Ga
atom 1.5726982953418116 6.2706503932943525 7.6885215406330261 Ga
atom 1.6036450891400589 6.2915791313157099 2.5001813712699210 Ga
atom 3.0807272333391884 3.6215438062623835 12.8057572183308341 Ga
atom 10.8638857564418085 11.7882294509012464 2.4736495463687138 Ga
atom 12.4958537045251976 9.1200924423770680 12.7695322081366598 Ga
atom 12.5165436371401295 9.0156322738746013 7.4925259540177818 Ga
atom 12.4781326688953236 8.9718922495712139 2.5298365623476551 Ga
atom 14.0810886864146259 6.2571670272223789 12.7444346502127637 Ga
atom 14.1131120101821530 6.4481232485908606 7.6427857465732938 Ga
atom 14.0706759052639594 6.3139145044981237 2.4750849547487568 Ga
atom 6.3356703201179831 14.4615348850923979 12.7570690028180707 Ga
atom 6.2056705925288078 14.4085080169653033 7.6116296588374563 Ga
atom 6.1552920124886921 14.5470204871166686 2.6910526675692292 Ga
atom 7.8650804710393887 11.6788127298390378 12.6867787231130063 Ga
atom 7.7977706115440331 11.7765315656213048 7.6789888671564182 Ga
atom 12.4455640625096677 14.5468065066733629 12.6345572195443001 Ga
atom 12.4982903549141842 14.4981200231459653 7.5611464793659575 Ga
atom 12.5023283839968737 14.3594149777497186 2.5684089964826011 Ga
atom 14.1920353805184334 11.6843792812785860 12.6894415258402145 Ga
atom 13.9469999449892352 11.7003937011357824 7.5796889980488942 Ga
atom 14.0718790805547993 11.6203252368184913 2.4416544275452337 Ga
atom 9.2999695482017017 14.4636086893821840 12.6558452071790608 Ga
atom 9.4009087572776817 14.4744610716022386 7.5846708661491915 Ga
atom 9.2961828288916788 14.4808409277840262 2.4429034278374040 Ga
atom 10.9659319405667564 11.8122532821220272 12.7136580226362543 Ga
atom 10.9615658181713584 11.7968013525362618 7.6496781938840686 Ga
atom 14.0618109148105095 0.9339727021971373 7.5908451107620882 Ga
atom 14.1317756875253870 0.7892531291068233 2.5000197654998768 Ga
atom 3.0763996976832710 14.3595965411895232 12.6902606230669690 Ga
atom 3.0655257733668129 14.3977844221916857 7.6629599348705995 Ga
atom 3.0414918334058396 14.4041079338190663 2.4614407797029596 Ga
atom 4.6942390054253851 11.7998967612862025 12.6884335723539721 Ga
atom 4.6210025993763555 11.6465944711714560 7.7243592519060265 Ga
atom 4.7150234971475671 11.6420665328599782 2.4757981909352100 Ga
atom 6.2688172789657974 9.0310405764059993 12.7597358650931447 Ga
atom 6.2301876049244127 9.0573386159221076 7.6632158558601375 Ga
atom 6.2975209754951544 8.9104674556921282 2.6624982627298825 Ga
atom 7.7824360633833738 11.7319435225639701 2.5519193652419321 Ga
atom 9.3941080185443298 9.0797194999384363 12.7762790345850910 Ga
atom 9.3058852693074119 8.9698711145952199 7.5596845515379254 Ga
atom 9.2710514484109385 9.0913873965338912 2.6187384876182804 Ga
atom 10.9433176873348508 6.2933659608570833 12.7846486240899218 Ga
atom 10.9803398520643363 6.2699124873151257 7.6501301672055604 Ga
atom 10.8712930672458263 6.3539074068661527 2.5216445165165107 Ga
atom 12.5559100517709918 3.5421012321857055 12.6627694844327454 Ga
atom 12.5035342909000242 3.6182619799353097 7.5225889006782749 Ga
atom 12.6850294192219319 3.6435674296457328 2.5019825696287410 Ga
atom 14.0938693444974827 0.8897340855119689 12.7698970216989593 Ga
atom 6.2503164579484807 7.1271533110655225 5.0814809601140478 Ga
atom 7.8524483677490791 4.5748221277343672 0.0127344589996556 Ga
atom 7.7498298950837645 4.5268027252756280 10.2592688910625469 Ga
atom 7.7555515115315323 4.5546590717132576 5.0139202866251233 Ga
atom 9.4195892860180503 1.7850976290460479 0.1761080339183167 Ga
atom 9.3076717557044937 1.8980506436129725 10.2098634627442859 Ga
atom 9.3329310695669996 1.8140787740710458 5.1037084199675489 Ga
atom 0.0263997072133012 12.7168904974219448 0.0051159644886614 Ga
atom 0.0124973510087585 12.6431813770411896 10.2104256608417767 Ga
atom 0.0583404961470945 12.7083120158169809 5.0473196656128199 Ga
atom 1.5074284806143616 9.8486627839986447 15.1733616156858755 Ga
atom 1.4346255230012805 9.9601268848854705 10.1922496558840852 Ga
atom 1.6013832836993109 15.2271468007179394 15.2428325940757468 Ga
atom 1.6400985628247462 15.3947447071622125 10.1852867009353041 Ga
atom 1.6631121407217277 15.3273696879929169 5.0729296105200641 Ga
atom 3.1362824305312009 12.4787158993768106 15.1614859515362301 Ga
atom 3.1617761092369108 12.5805994085382427 10.1633287790493867 Ga
atom 3.1472019454684634 12.6244047832154784 5.0208914551100898 Ga
atom 4.7872283692427935 9.8748958641084688 15.2314183163518830 Ga
atom 4.6141502371488512 9.8136358998730575 10.2704453448931989 Ga
atom 4.5992403509596764 9.8613314232180329 5.0805239007576493 Ga
atom 6.3200623724886311 7.2050402550678507 0.0857962753095673 Ga
atom 6.1911109294658617 7.1727280399758238 10.1102361609104161 Ga
atom 15.5890321509696701 7.3025778873302070 10.1543700861992523 Ga
atom 0.0787925583369042 7.2175546758012850 5.1507915564176834 Ga
atom 1.6050513160348723 4.4803307418430460 0.1304488057024562 Ga
atom 1.5632927588028955 4.4450815102387740 10.1693023281290813 Ga
atom 1.6084839457992735 4.5585871514355141 5.0373135297399747 Ga
atom 3.1500624529797907 1.7855651391053848 0.0496340448069746 Ga
atom 3.1610402588328217 1.7531283765525520 10.2736222952873657 Ga
atom 3.1208111302936343 1.7178309368956708 4.9939268440293034 Ga
atom 15.6088363798169443 1.7976709960232098 15.1671408631953764 Ga
atom 15.4939870459553344 1.7857862053754858 10.1560513313421996 Ga
atom 15.5957532736917610 1.8371344442622808 5.0369496976660235 Ga
atom 1.5825556235393428 9.9584823277980110 4.9615897981190562 Ga
atom 3.2943894302446912 7.1673637936729770 15.2370093097567807 Ga
atom 3.0642618881441317 7.2102494026764203 10.1407727473156886 Ga
atom 3.0574068465145920 7.2387450346728324 5.1130448115974856 Ga
atom 4.7266324231244923 4.5551409118690875 0.0166438340438918 Ga
atom 4.5509712752002001 4.4607765909876180 10.1159000368401433 Ga
atom 4.6097226402132714 4.5026448556814840 5.1155691719930347 Ga
atom 6.1716795980254266 1.9068063952620034 15.1582509142653610 Ga
atom 6.2616839953334846 1.8598339172652383 10.2337223823416004 Ga
atom 6.0947648265807981 1.7703914280117468 5.0006766163535126 Ga
atom 0.0482991267697682 7.1645162879485964 15.1937326099821330 Ga
atom 14.0801410233678350 9.9047250626073726 5.0273274428965244 Ga
atom 7.6670324050258358 15.4293486893064706 15.1856550867663280 Ga
atom 7.7547349652624495 15.3979389519438126 10.1985062378326745 Ga
atom 7.8110421124352216 15.5030444220675143 5.0738449387901632 Ga
atom 9.4094949554993050 12.6839556094926529 15.2281059861900694 Ga
atom 9.3863656488438174 12.5803326981492347 10.0548423834453864 Ga
atom 9.3554360800627414 12.6369476980830413 5.0354759261825279 Ga
atom 10.9188858413579073 10.0284661872131515 0.1414273876753113 Ga
atom 10.9821099781023168 9.9354905214764333 10.0880956125388224 Ga
atom 10.9495029458045803 9.9259750010343293 5.1128454603666844 Ga
atom 12.4396408898949460 7.2500107444076658 15.2350359170204523 Ga
atom 12.5425395534656605 7.2364661979498628 10.2325739942629319 Ga
atom 14.1116809114875839 15.3525649761834142 15.1889978368468412 Ga
atom 14.1179191084077882 15.3202470305518492 10.0888288192819946 Ga
atom 14.0963699502972766 15.3083294557496732 5.1290826070980495 Ga
atom 10.7930253185631937 15.2850950621504253 15.1630624737865869 Ga
atom 10.8952599204537357 15.3762335679621298 10.0316933625580571 Ga
atom 10.9303063446820907 15.3716144908086729 5.0918800407039315 Ga
atom 12.5939394846515835 12.7424139946429680 15.2369635783874315 Ga
atom 12.4423632693014223 12.6775018075674986 10.1591543773810074 Ga
atom 12.4858264419558793 12.5336426515143717 5.0702565604795913 Ga
atom 13.9989236552144316 9.9276552265929645 0.0028713652370713 Ga
atom 14.0262556933252167 9.9028567996539962 10.1792851494449739 Ga
atom 7.8342893420798907 9.8944157344770218 10.1321559965409396 Ga
atom 7.7416068710453363 9.8553091905284784 5.0743625216962940 Ga
atom 9.3202895516588331 7.2596376606075035 0.0449847140426248 Ga
atom 9.3497947122499951 7.2592650182934033 10.1325402489492618 Ga
atom 9.4631129218065446 7.1657181006407171 5.1655856617322593 Ga
atom 10.9857895550346214 4.4612508819105408 0.0432126595753764 Ga
atom 10.9946135577797914 4.4985822980140640 10.1111033326645003 Ga
atom 10.9833484149095231 4.5066124850553964 5.0500460662211246 Ga
atom 12.5016142191481965 1.7352470020912680 15.2162790303506430 Ga
atom 12.4633985437135468 1.8546430175347275 10.1399749661220397 Ga
atom 12.6065240418005828 1.8325677905458777 4.9711175693321996 Ga
atom 12.5167958657389438 7.0750836483795201 5.0053115184672050 Ga
atom 14.1723052582223392 4.6099749611355874 15.0960803664158227 Ga
atom 13.9895610866069617 4.4446015144297162 10.1207429632893025 Ga
atom 14.1784251920929485 4.5340388359630568 5.0832066982339583 Ga
atom 4.5966059881896877 15.3401146726067292 15.2076162567221704 Ga
atom 4.7976795238964849 15.2740387498254080 10.1956448663973571 Ga
atom 7.6944318389942969 9.9052606140912953 0.0488774533560362 Ga
atom 6.2674334397200822 12.6158002791357848 5.1099291174292434 Ga
atom 6.2719992292660933 12.5807058440140356 10.1316158488443779 Ga
atom 6.3691816683537743 12.6620821978897897 0.0909873051312701 Ga
atom 4.5877997956673076 15.3934135895217619 5.1434271923771533 Ga
atom 3.0053663942678996 9.0332596228711814 9.5020255918762810 N
atom 3.1768595034491969 9.0679451461790475 14.6769859944679926 N
atom 1.5601127679308873 11.7987995797559577 4.4511035548862692 N
atom 1.5900469573761389 11.7867937055030776 9.4670457625255917 N
atom 1.5525052212761128 11.6442004635364960 14.5443443441020932 N
atom 0.0340665359500400 14.4850748515647147 4.3873195877830851 N
atom 3.0781989369584615 9.0156970777453473 4.5013489222339791 N
atom 4.7353972486375318 6.3436454447470778 14.6349086677509916 N
atom 4.5652649818839057 6.3077959290406476 9.4358480127703821 N
atom 4.6234937005674341 6.2557510194314885 4.4685098562089323 N
atom 6.3383498226429387 3.7789791484015147 14.6546785087114468 N
atom 6.3285461604625013 3.5599290484365591 9.5488018461924842 N
atom 7.8655478649167758 6.3030415650716387 14.5920819422808279 N
atom 7.8454245297648493 6.3427793744099006 9.5862145752020922 N
atom 7.9107235282699113 6.2446180687576680 4.4133056050750810 N
atom 9.4470338740349007 3.5865326781726452 14.6889567742482701 N
atom 9.4032987594095694 3.6971963556339706 9.5369816324976853 N
atom 9.3797591529084556 3.5732741674463369 4.4916509098019066 N
atom 10.9043868060629130 0.8185329920343781 14.7038076102654340 N
atom 10.9979159781121361 1.0071474324370382 9.5398749633933750 N
atom 11.0355443579822818 0.9542868341079079 4.4357851971977746 N
atom 15.5948989497095347 14.4840919519036628 14.6621741306638231 N
atom 0.1120761345341489 14.4688138814876712 9.4764966794344012 N
atom 3.0392768620852681 3.4945921616238955 9.5479878494745414 N
atom 3.1712413877659382 3.6092814544637424 4.4714184699250401 N
atom 4.7528462432882117 1.0737983892125342 14.5846012838995485 N
atom 4.7075707858056832 0.8299411023751666 9.6893404550839044 N
atom 4.5770467515577087 0.8913472873574678 4.3138880840965346 N
atom 0.1127404180525535 3.6517805925077296 14.6096360393340596 N
atom 0.0537316575838816 3.4740540101609318 9.5456931148412760 N
atom 0.0333548266493902 3.6383115935291164 4.5421625750486969 N
atom 1.6452819365330513 0.9290822428462072 14.5852692111139799 N
atom 1.4890869086194967 0.9098218425435554 9.5199226685259060 N
atom 1.5698039907039210 0.8623574535474339 4.4015922715131843 N
atom 6.2683426659184445 3.6435477341130578 4.4547421775334843 N
atom 7.8203121713572452 1.0190202572237925 14.6631593900892856 N
atom 7.7912930499490551 0.9595982572851832 9.6432941955093074 N
atom 7.7947941340683391 0.9913823087103161 4.4267586147500353 N
atom 15.4780594435336329 8.9783651991446884 14.6537637623878005 N
atom 0.0222909915836605 9.0026419141159550 9.5646896627632447 N
atom 0.0093570710271601 8.9829234310738180 4.3685531971232612 N
atom 1.5549578555002808 6.2527670110260711 14.5839669450214426 N
atom 1.4881469203082847 6.2415508005284481 9.5555659982475056 N
atom 1.6577544661333046 6.3506520626133227 4.4223593461458561 N
atom 3.1118842286152244 3.5913187272721681 14.5722345562591364 N
atom 10.9935962574341950 11.6305487974591149 4.4676990112174799 N
atom 12.4238425764251552 9.0210294111368530 14.6214689689047290 N
atom 12.4430626499821635 8.9891821080676415 9.4013906979672637 N
atom 12.4065233302221305 8.8970705474531293 4.5442828819720598 N
atom 13.9366321205480723 6.3404183295711851 14.6005718066329706 N
atom 14.1564178370982887 6.1779254632187701 9.5619990108001591 N
atom 14.1828087006895363 6.3581111261833803 4.4487517737924049 N
atom 6.1801130151371551 14.4861263308235717 14.5773369286283216 N
atom 6.3900911095825563 14.3681540994386516 9.4854429398585403 N
atom 6.2205975685999384 14.5015813758028891 4.5911862048286727 N
atom 7.8349848730889438 11.7141385797704061 14.6919335053336333 N
atom 7.8118066094139085 11.6625396321972037 9.5362078532557017 N
atom 12.4296242476475829 14.4971476671710597 14.5856565074963171 N
atom 12.4992279791307901 14.4364928235610730 9.4901716721373628 N
atom 12.5563364066993444 14.3544960549629970 4.5634948095172279 N
atom 14.0738867200721156 11.6887696627210556 14.6537569296999930 N
atom 14.0265843226202822 11.8048538537814096 9.5091993100268546 N
atom 14.0604538384652660 11.6259380917709443 4.4305776525632430 N
atom 9.2987391394206185 14.4029684458582672 14.5811292022665651 N
atom 9.3200896365042940 14.4786975692051101 9.5359720529343939 N
atom 9.3578835253001973 14.4795897661487931 4.4911651314749115 N
atom 10.9776431937731971 11.8315692591354669 14.6201684101295726 N
atom 10.9312024089086357 11.6698963015210282 9.5196256448718959 N
atom 13.9882616757268501 0.9257369029561680 9.5088258315898262 N
atom 14.2447009656552623 0.8509384062037534 4.3558221825532781 N
atom 3.0215666098111806 14.3544899837983433 14.6218105251374535 N
atom 3.1859592789953184 14.4155112067855899 9.5378336645396562 N
atom 3.1621090899630158 14.4270853296567179 4.4261013343069200 N
atom 4.9170954046508752 11.6863422010476157 14.5483587969980537 N
atom 4.6435522468570944 11.7068354847218963 9.5976834409103660 N
atom 4.7403611820503340 11.6513803373262821 4.5068462509289251 N
atom 6.1844483453252881 8.9707396345902186 14.6736464928781558 N
atom 6.2354841587918708 9.0426475811972633 9.4916124138721774 N
atom 6.2905365232936630 8.9186332951631329 4.5505720231488374 N
atom 7.7579587969374106 11.7090315895410395 4.4304875663855361 N
atom 9.3067129009714478 9.1257530595889413 14.7181387281828613 N
atom 9.4282030885290578 8.9843930908198502 9.4753887313316181 N
atom 9.3486465362145665 8.9060398236167782 4.5114601728092616 N
atom 10.7964360528748315 6.2625875885272224 14.6582642215487251 N
atom 10.9071053708702159 6.3341225597780415 9.6007111290266778 N
atom 10.9527746324821482 6.2312064375419753 4.4926222999215568 N
atom 12.6434994958661449 3.5636664153614936 14.5828490468737169 N
atom 12.5486667472796203 3.5857086560484923 9.4594610380525523 N
atom 12.5687733017021799 3.7588688091804436 4.4464887735124572 N
atom 14.1717839051269117 0.8459483931015637 14.5913055151193731 N
atom 6.1280149772358961 7.1988658941277119 1.9678003591324669 N
atom 7.8466613009526203 4.5043292099696171 12.2208268028621365 N
atom 7.7385175717549259 4.4787374258639971 7.0037468484551999 N
atom 7.9520081133903382 4.5550451687150657 1.8082554480769968 N
atom 9.4483892723649170 1.8915152564747695 12.1384930584053592 N
atom 9.2396549035729798 1.8429930305685209 6.9530231007945043 N
atom 9.4253017913734443 1.9319108199297288 1.9880329507158867 N
atom 0.0334597537654246 12.6576391251446161 12.1296813381300517 N
atom 15.5062388845102355 12.6736146503449447 7.0827887006472023 N
atom 15.6205225954026599 12.6253646130469459 1.9685990206298078 N
atom 1.5169871356634890 9.9456065040086461 12.0887604934415211 N
atom 1.6250774098797436 9.8373657416084122 6.8471826960426725 N
atom 1.5320583646253727 15.2373839402367786 11.9364836576858675 N
atom 1.4699226967257846 15.2472754070910650 7.0114306166309568 N
atom 1.4508451891321694 15.2896388377615242 1.8849681589170504 N
atom 3.1464098771291442 12.6785973014199307 12.0401428976297993 N
atom 3.0710339245730154 12.6382582366210467 6.8784307492674763 N
atom 3.0570198479596682 12.6438369967563080 1.9074041253555325 N
atom 4.6258046604380310 9.9028119405315405 12.0755927324940640 N
atom 4.6609875721934158 9.8865131127715404 7.0506914026557510 N
atom 4.7839994564140644 9.9034183660926747 1.9370799299176391 N
atom 6.2573157360139291 7.3228217800868265 12.1000306657288590 N
atom 6.3343633363980842 7.2114789568812183 6.9843665676838453 N
atom 0.0772773157669825 7.2809491132185693 7.1495643934810875 N
atom 0.0196657766147479 7.2051905639281886 1.8432612231951349 N
atom 1.6210174684064025 4.5522111923982376 12.0475121618498573 N
atom 1.5805313689275096 4.4273794465338048 6.9848060108545926 N
atom 1.5691702074900002 4.4860893632603185 2.1539542738697084 N
atom 3.0970242237822645 1.7751062065691046 12.1951902820286460 N
atom 3.0692012236022177 1.6989797112721214 6.8390728316898723 N
atom 3.2702567978335599 1.8641958403986989 1.9208633181453769 N
atom 0.0244023550450156 1.7790641875459063 12.0668793866925057 N
atom 0.0114928054118671 1.8569589365502612 6.9794957299596341 N
atom 0.0608011397636175 1.8045405859161461 1.8462342388050070 N
atom 1.5354429340920750 9.9288829942517030 1.8548136787862264 N
atom 3.1272215268075554 7.1833115699135739 12.0582332323302577 N
atom 3.0926884777370516 7.1264583924066986 7.0208326063002069 N
atom 3.1502834981689416 7.1139781371825084 1.8155958649637127 N
atom 4.6869839650814979 4.5303328774555158 12.1137631386208859 N
atom 4.7331601319677965 4.4158668688445939 7.0385771074903323 N
atom 4.8013538313678206 4.5614223304843433 1.9588357442631286 N
atom 6.3482704431752373 1.8884200793874455 12.0949300902990036 N
atom 6.1850249698949780 1.8012085682314225 6.9634759198984808 N
atom 6.1567219025010509 1.8642300770522917 1.8011352148221427 N
atom 15.5366892602449163 7.0925063607382777 12.0810176914502563 N
atom 14.1157324139429914 9.8798313782119642 1.8695039067035075 N
atom 7.6837357996436753 15.4646135532670073 12.0941037294801834 N
atom 7.8611499119304309 15.3524811892719608 6.9598136411842502 N
atom 7.7285449320366482 15.3799533468429548 1.8617415739934093 N
atom 9.3441552634697160 12.6216828450036029 11.9802758550461306 N
atom 9.3331517650300544 12.6425008782225738 6.9141243729494066 N
atom 9.3348751717628016 12.6937256852686104 1.9441013150903130 N
atom 10.9653572086747442 10.0145918303984214 12.0496457414386402 N
atom 10.9258790032135984 9.9431280716037094 7.0979866184527358 N
atom 10.8676163252705962 9.9735059773009969 1.8506333278099374 N
atom 12.5496977386780326 7.2766283643404313 12.1100689050413042 N
atom 12.5114144807868914 7.1253061045754711 7.0294630787155539 N
atom 14.0302597188367013 15.4292656500580971 12.0473994886604636 N
atom 14.0517241344701382 15.3288161478016463 7.0245361970967011 N
atom 14.0229350722157520 15.2736065862430088 1.9401058996092213 N
atom 10.9700134355315395 15.3513556091925043 12.0458151640728914 N
atom 10.9788174894195016 15.4146642666093978 6.9787171330443574 N
atom 10.8188434619922553 15.2327515093129193 1.8187797999495026 N
atom 12.5735390170834140 12.6224987325782223 12.0932999331694688 N
atom 12.4652586162458743 12.6753248720749117 7.0661721957727570 N
atom 12.4872972733838612 12.5963993239422081 1.9131371557610242 N
atom 14.0509256739793003 9.9123155563180330 12.1243408801972521 N
atom 14.0837371130001525 9.9080988078346408 6.9951810101739111 N
atom 7.7137422007724075 9.9224234535578155 7.0456678233793335 N
atom 7.8060102921856265 9.8905796902626442 2.0067968122863413 N
atom 9.3450267143662398 7.1645893536114507 12.1057258053629031 N
atom 9.2940069039521340 7.2408502433954194 7.1144531610842430 N
atom 9.3337421932904547 7.3318738918227373 2.0418032393194201 N
atom 11.0853349452438543 4.4957009832495647 12.1035153596764289 N
atom 10.9589672910235461 4.4276006344547341 7.0080155470009524 N
atom 10.9547899864001330 4.6193029197417879 2.0223909344756925 N
atom 12.5188944246193365 1.6829918947680897 12.0520750434547157 N
atom 12.5769462289918277 1.8626651815548481 6.8709624094100583 N
atom 12.5926426219343526 1.7421664211960437 1.8772941923600115 N
atom 12.4963639095549013 7.1663629275310532 1.9963881526223313 N
atom 14.1171635774652220 4.4364375719289058 12.0567603099230070 N
atom 14.0190697989700297 4.6229161836735599 7.1441371602048642 N
atom 14.1424841928403744 4.5765214808752823 1.9097289001529092 N
atom 4.7430455395107867 15.2639474389740730 11.9469536494680284 N
atom 4.6195853661043751 15.4657315301637777 7.1129202824748372 N
atom 4.6315487936437298 15.2810619463426676 1.8834740876933844 N
atom 6.2863637796665621 12.6958130195502807 12.0675597456620203 N
atom 6.1291070828395959 12.5960020744385179 7.0370522953060339 N
atom 6.1754608348655591 12.6853915590863018 1.9569751912656288 N
atom 7.7427468610470456 9.8031254266826462 12.0621611841354639 N
