#===============================================================================
# Created using the Atomic Simulation Environment (ASE)

# Thu May 11 08:59:13 2023

#=======================================================
lattice_vector 15.6273739999999997 0.0000000000000000 0.0000000000000000 
lattice_vector 0.0000000000000000 16.2404434541285205 0.0000000000000000 
lattice_vector 0.0000000000000000 0.0000000000000000 15.2445761999999903 
atom 15.5412108628583603 14.3240316810315438 2.4843900758960307 Ga
atom 1.5960540391532161 11.7708444706121096 12.7683668243159811 Ga
atom 1.6132511411359574 11.7784288193451410 7.6632801953869683 Ga
atom 1.4865770737976940 11.7135977764682835 2.5695626319901397 Ga
atom 3.0636009722526261 9.0750870698675232 12.7149448162347412 Ga
atom 3.1332017204651361 9.1402623717894187 7.6227016752728920 Ga
atom 3.0583615333133816 9.0255841492212170 2.6020803847484784 Ga
atom 4.6734639725841918 6.3584042476361065 12.7833792579182237 Ga
atom 4.6962509567911646 6.3911152320411064 7.5818148195353414 Ga
atom 4.7917052627521608 6.3998946829075543 2.4833714946487642 Ga
atom 6.2167548293660166 3.7264595630646311 12.8143550833260740 Ga
atom 6.2236724977393685 3.5528936437965499 7.5218047240990167 Ga
atom 7.9617521299709324 6.3090764362915861 12.6031962751256472 Ga
atom 7.7905164677147756 6.1569248689366711 7.4798892688705125 Ga
atom 7.8696687588625540 6.3686899790512479 2.5362141137846237 Ga
atom 9.5056900085030964 3.6663457191836319 12.6693342722813913 Ga
atom 9.4578709991557730 3.5195401973347127 7.5762474181804542 Ga
atom 9.3284663623949893 3.7124753912279598 2.5134184524321737 Ga
atom 10.9299345745621235 0.7911756884020315 12.6849076605766289 Ga
atom 11.0320356696731370 0.8423588101958002 7.6292999479208188 Ga
atom 10.8861588916167555 0.9007637881654772 2.3538229534957611 Ga
atom 0.0776935416662925 14.4436295009990587 12.6417116196252231 Ga
atom 0.0156251830441968 14.4084453569115336 7.5499409750336843 Ga
atom 3.1035632939727540 3.6938953720872694 7.6235391588473247 Ga
atom 3.1969920623799903 3.6728597453360687 2.4719438829486924 Ga
atom 4.7302825032730400 0.9561888867674776 12.7471709047402690 Ga
atom 4.7387011424026158 0.9111966205840667 7.5875067551939388 Ga
atom 4.5143161779573839 0.9151888172808543 2.5083222097223161 Ga
atom 0.0166036603795762 3.5181977463089167 12.7179540084567648 Ga
atom 0.1356800791909369 3.6840029965738377 7.5833895166846084 Ga
atom 15.6169407868743590 3.6353380429748801 2.5076855689340896 Ga
atom 1.6786047327045670 0.8550271149081755 12.6815758906216445 Ga
atom 1.4994173298411260 0.8680787921978353 7.6699341498011835 Ga
atom 1.4126822505881542 0.9895752575730626 2.5620462690070536 Ga
atom 6.1680981030292861 3.6372670914064256 2.6691833421912179 Ga
atom 7.8708668383674025 0.9762146440000371 12.7007380047072918 Ga
atom 7.9581909448809123 1.0027736090580595 7.6640941994945688 Ga
atom 7.6079421133674607 0.9703900139991708 2.4798259203725226 Ga
atom 0.1220864629723617 8.9889707330889106 12.7529048593315757 Ga
atom 0.0462529119403319 9.0681403548789081 7.6688801548477397 Ga
atom 15.5929818596872334 8.9845875149965053 2.5216251018482314 Ga
atom 1.6041824952636792 6.3750993285196822 12.7236901047165087 Ga
atom 1.6255581848764582 6.3128254701058673 7.6718664579979272 Ga
atom 1.4085926211885835 6.3637503625625280 2.4833816442250871 Ga
atom 3.1394797661195017 3.6148657161716753 12.7739274947038695 Ga
atom 11.0282899155232847 11.6924990500588706 2.6137584831619360 Ga
atom 12.5440254515588716 9.1394479145761007 12.7595413212556057 Ga
atom 12.6492065149509170 9.0115503274183180 7.6781389314545079 Ga
atom 12.4516521289182620 8.9447751805823685 2.5378575420400278 Ga
atom 14.2099119202523276 6.4015417951972005 12.5996192307118822 Ga
atom 14.2247721650068915 6.3153669860086383 7.6195986002474365 Ga
atom 14.0048773568500327 6.2932866392609164 2.5492680178847325 Ga
atom 6.1879354082236286 14.4978297453713392 12.6907745719759042 Ga
atom 6.1968505507617673 14.4960728422995846 7.7851323203405789 Ga
atom 6.1945913695535806 14.5007871655937901 2.5803519175835974 Ga
atom 7.8656178393761742 11.6620177010291517 12.7440079464763993 Ga
atom 7.8296743832867808 11.7539584617833395 7.7349374166044464 Ga
atom 12.4680238702043020 14.4985858655665716 12.6812102243509255 Ga
atom 12.5345681108222582 14.4799229870975861 7.6541164663021810 Ga
atom 12.4027930826065127 14.4317490917577711 2.5052558899856545 Ga
atom 14.1037471988119467 11.7042199413286774 12.7206389589318878 Ga
atom 14.1252365247595826 11.7555941467524292 7.5486047426926941 Ga
atom 13.9909260009475833 11.6625528498061062 2.4982856467847236 Ga
atom 9.2606166465251949 14.3695748284805749 12.7188150798916926 Ga
atom 9.2936079083303245 14.5746727306170740 7.6863759811138541 Ga
atom 9.3292733128596268 14.5723416092555151 2.6230656375536454 Ga
atom 10.9520601141535199 11.7859222630212770 12.7606205903820307 Ga
atom 11.0048099464520188 11.7218222024567034 7.6096298617147804 Ga
atom 14.1187227410857545 0.8963080159357901 7.7792039516741758 Ga
atom 13.9775001774173226 0.8854547848037199 2.6412678164685977 Ga
atom 3.1379844566673660 14.4465520365823412 12.7035120595479789 Ga
atom 3.1071693443163566 14.3644527891144413 7.6166035903305787 Ga
atom 3.0675786571391916 14.3852100553727578 2.5725340933796432 Ga
atom 4.6985855108488366 11.6575291512068002 12.7643931690833607 Ga
atom 4.6735368850492875 11.6598789757552090 7.5872700102240218 Ga
atom 4.6266065542757531 11.8836450355260155 2.5358249742202124 Ga
atom 6.1667353736396491 8.9744072279589240 12.6991076087861074 Ga
atom 6.2495414278110770 8.9929597805961112 7.6372655001108827 Ga
atom 6.2505471300491457 9.1792423903702751 2.4369470121196741 Ga
atom 7.8063306602250773 11.8315356099123559 2.5908426943359109 Ga
atom 9.4441109471370446 9.0230667200779937 12.5597933244215749 Ga
atom 9.3842434165888520 9.1327546924552916 7.5828115570911203 Ga
atom 9.4494496243654584 9.0941117410921120 2.4590098105427760 Ga
atom 11.0539240887795867 6.2801046194708512 12.5903586697139005 Ga
atom 10.8014917235808987 6.3757629539233980 7.5115888151004571 Ga
atom 10.9532894423617009 6.2715579567820896 2.5797977920784074 Ga
atom 12.6623557074962640 3.5819105027982854 12.6054233346575284 Ga
atom 12.6423710557063487 3.6378470711390616 7.6521614611899595 Ga
atom 12.4463071233533338 3.6082824087214078 2.5505959382431160 Ga
atom 14.0378280001324978 0.8006432366857534 12.7014044445084231 Ga
atom 6.3120501793407948 7.1122454731614866 4.9789143273578409 Ga
atom 7.8647739933302141 4.5742607448424213 0.0459057545208248 Ga
atom 7.8292932487572084 4.5149762996019618 10.1625346646248094 Ga
atom 7.8054262160791072 4.2527449682238396 5.0196218661340328 Ga
atom 9.2350508813109560 1.8441859415128852 0.1197239594640221 Ga
atom 9.3858768983480214 1.8076005317237316 10.2357855036268717 Ga
atom 9.3193613782058868 1.7567925462957856 5.0518503571309550 Ga
atom 15.5530393849739959 12.6957968541672326 15.1781685705784390 Ga
atom 15.6065967221987059 12.5881841656927680 10.1682342414695981 Ga
atom 0.0000374148095742 12.5910473529015672 5.0789739455625682 Ga
atom 1.5447930343474725 9.8521566135611316 0.0437983913027639 Ga
atom 1.5295596644772584 10.0292328151836632 10.0656295608481088 Ga
atom 1.5198628973521227 15.3760891132070689 15.1823743737736887 Ga
atom 1.5359181218462650 15.2598611759183562 10.1371268537651087 Ga
atom 1.4291274145353874 15.2465014070471732 5.0575223526578048 Ga
atom 3.0960237683412521 12.5331794575714799 15.1806352937973443 Ga
atom 3.0896636132240229 12.5787122686614889 10.1052559704278622 Ga
atom 3.1255298538093226 12.7274834138103081 4.9598424922590310 Ga
atom 4.6745198769167331 9.8887623291345150 0.0426263489425252 Ga
atom 4.6573430138479193 10.0604710527233685 10.0747351340510072 Ga
atom 4.7200873258985734 9.9201122300286642 5.0413513533839369 Ga
atom 6.2619391061881196 7.2761671339356875 0.0086875381496626 Ga
atom 6.3153990237516497 7.1499678907603998 10.1799730658241110 Ga
atom 0.0966626004285665 7.2515388829795988 10.1930866004659446 Ga
atom 15.5878202007167381 7.2507997009854810 5.0292106370215182 Ga
atom 1.5245412313993161 4.4072842881801231 0.0211306546235304 Ga
atom 1.5829460601282670 4.5430166671884171 10.0929806465833014 Ga
atom 1.4706125184764327 4.4273929419033360 5.0337177008188601 Ga
atom 3.0554222843378653 1.7808795708402378 0.1300012352821140 Ga
atom 3.2822734617589591 1.9177886292189978 10.1868775746867186 Ga
atom 3.1511182104683049 1.7075947061759686 5.1083122551959903 Ga
atom 15.4643311871680442 1.6249742599305843 15.2098354970148666 Ga
atom 0.0622096170587335 1.7905211864026782 10.2270278598787669 Ga
atom 15.4654473029102864 1.7807789530737510 5.0223869697187373 Ga
atom 1.7012391387049701 9.9946068970493691 5.0671384306020215 Ga
atom 3.1113835161034942 7.1408238544172384 15.2410126847992640 Ga
atom 3.1994157509542838 7.2271762159885151 10.1620301062676450 Ga
atom 3.1228443070256966 7.2206326035347272 5.1007697581183793 Ga
atom 4.7520737037368166 4.4963744426216552 0.1246518797597260 Ga
atom 4.6509770302268274 4.6372127518923456 10.1646024575179243 Ga
atom 4.6121697350074911 4.4103125245489858 5.0194395943823267 Ga
atom 6.1062857888939686 1.7156031526696345 15.2330078290297273 Ga
atom 6.2837376638492364 1.8788069207579610 10.2065847615969680 Ga
atom 6.1325271726029156 1.7231686550545209 5.0513735801188613 Ga
atom 0.0493078276866564 7.1228760303018932 0.0154521381040528 Ga
atom 14.0400321043889384 9.9204755172857411 4.9536554850111818 Ga
atom 7.8170886873147802 15.3234601018862797 0.0601009916867251 Ga
atom 7.9326745239219223 15.4905201473251601 10.1048438688153706 Ga
atom 7.7583676186148924 15.2721367949841387 5.1852696809543959 Ga
atom 9.4727256769718338 12.7310791828898608 0.1365602538369040 Ga
atom 9.2400019596643457 12.7403423069828463 10.2337998554626122 Ga
atom 9.3398993621258182 12.5630001148749226 5.1703357985307212 Ga
atom 10.8902060752024763 9.9131629195714659 15.2317318774154522 Ga
atom 10.9164437027000254 9.9139178833881729 10.1211982770881583 Ga
atom 10.8799374282218722 9.8807797882615258 5.1126572812304154 Ga
atom 12.5622072541987997 7.1854050675552683 15.0936011556605596 Ga
atom 12.6917310166761634 7.2114821964504978 10.0511618084825827 Ga
atom 14.1380494939499766 15.2562923415619789 0.0474417663973697 Ga
atom 14.0354890263098131 15.2897925236366117 10.2044081408107825 Ga
atom 14.0158674127575971 15.3049207544652361 5.2218871921818204 Ga
atom 10.8901926475585817 15.4128311664067752 15.1983409998733077 Ga
atom 10.9581036406042021 15.3378852496564466 10.2069374948622471 Ga
atom 10.9153838611332734 15.3834981010212264 5.0512620965312811 Ga
atom 12.5383899625395028 12.4491922063485934 0.0067690531324562 Ga
atom 12.4658919593838799 12.5452803032227660 10.2206789959808848 Ga
atom 12.5746936740583823 12.6498203063472658 5.1198384509443171 Ga
atom 14.0769064320630353 9.9912488573412386 0.0902088528807709 Ga
atom 14.0773814505388515 9.9715025541264879 10.2108602424116821 Ga
atom 7.7414456632017199 9.8604887315949057 10.1951397021096017 Ga
atom 7.7287255791314626 9.9297817617525350 5.1624518268634771 Ga
atom 9.4803347012751455 7.1799702372382992 15.1378659177720500 Ga
atom 9.4740399676555054 7.0333980257121009 10.0473859431710579 Ga
atom 9.2400572995540013 7.3176725778863592 5.0829029581343228 Ga
atom 11.0155066103312667 4.5869939430935771 0.0252451290270073 Ga
atom 11.0370298054271885 4.4856145441047923 10.1593091897264145 Ga
atom 10.8858877530101115 4.3912742401153455 5.1481073288989023 Ga
atom 12.4850846622727740 1.8358710168033006 0.0392986119816408 Ga
atom 12.6741831975605841 1.8212515237403701 10.1523425381037313 Ga
atom 12.4010422569083154 1.7823580818978693 5.1045035285976503 Ga
atom 12.4238811607306729 7.3205085239375531 5.1623639154675587 Ga
atom 14.1021884697167970 4.3902573489357382 15.1732632738618936 Ga
atom 14.1682899470506349 4.4218457935135476 10.2118287613263838 Ga
atom 14.0298299982969112 4.4674082473977794 5.0398865443497547 Ga
atom 4.5555122883232899 15.3249709914910142 15.1635218623621792 Ga
atom 4.6130914315502585 15.3892162286364833 10.0539075460130469 Ga
atom 7.9450461006058113 9.9378543678452367 15.1447691228299295 Ga
atom 6.3125843036200795 12.5345938333298381 5.1023725090137804 Ga
atom 6.2562408155608757 12.8008559482262854 10.2095544353605128 Ga
atom 6.2835785073263040 12.6638383631890541 0.1164823507543926 Ga
atom 4.7028175066194482 15.3272623826442160 5.1417188110249654 Ga
atom 3.0785413735465030 9.0137016055484676 9.4521288205500209 N
atom 3.1366549388373692 9.0759361800461829 14.5888550013994980 N
atom 1.6159388252381757 11.7355314416096661 4.4320745915186839 N
atom 1.4728742357755096 11.8419413947826495 9.4661715280860381 N
atom 1.4364031332172997 11.5802619040153942 14.6204855849656621 N
atom 15.5229853388865955 14.3754545582558784 4.4558411674194609 N
atom 3.2088476924596114 9.0183116325334023 4.4988783479944159 N
atom 4.7008781002430959 6.4127525613820566 14.7383007676017623 N
atom 4.7484759703885482 6.3226938060380791 9.4232908116936720 N
atom 4.6112609401154305 6.2920404646796690 4.4242632365183310 N
atom 6.3273099201053702 3.5015994711737131 14.6371333754270978 N
atom 6.3060409790339174 3.6856093752638501 9.4209737412686643 N
atom 7.7928296834391588 6.2901715036071213 14.6732536186710920 N
atom 7.8848051108302757 6.2539200143644642 9.3656104511015315 N
atom 7.8838957700007501 6.0313627376022589 4.4169202712383449 N
atom 9.4489533448920096 3.7201133646260165 14.6654544338572510 N
atom 9.3838684693773402 3.7542941863986168 9.5779963928973562 N
atom 9.4523850018944167 3.5943931758672161 4.4502476469216239 N
atom 10.9602280802376217 0.9788531162189299 14.6519970168617437 N
atom 11.0126504242459511 0.8888719362815879 9.5194820094277901 N
atom 10.8497870618496783 0.9102558957522185 4.3039778222843355 N
atom 15.5898035720281811 14.3880618079199962 14.4903964949698612 N
atom 15.5291820119353492 14.3704919023426054 9.5367977349727546 N
atom 3.2432416030513078 3.6436261184542329 9.4903681383301368 N
atom 3.0072760852761982 3.4397925109528953 4.3715973284594503 N
atom 4.7148786496661756 0.9042163898637504 14.5874278916185425 N
atom 4.7757456961001488 0.8983351605370088 9.5915187916671325 N
atom 4.6932098164096834 0.8335978334879468 4.3738278386375873 N
atom 0.0595942027281957 3.5024479168324025 14.6038404166405424 N
atom 0.1532346307694207 3.6345080508081709 9.4958795543637038 N
atom 15.5800452200575137 3.4620317067668847 4.3442305779633301 N
atom 1.4262804035021621 0.8654937257669645 14.6575403216996616 N
atom 1.5395448765730992 0.8823478354158523 9.6142486443933706 N
atom 1.4236005802606726 0.8605287740013147 4.4775669030802350 N
atom 6.1128477226274134 3.6001652109392546 4.5391621041061807 N
atom 7.7756145559524867 0.9578234870224085 14.8170741574895750 N
atom 7.9039042028998825 1.0862267069189366 9.5444301662852276 N
atom 7.7497369002816532 0.8057331114492409 4.4596065286248185 N
atom 15.5986539716960433 8.9095300014283421 14.7902938374180319 N
atom 15.5665376248527352 9.0461229402383658 9.4288327741131130 N
atom 0.1137494187143517 9.0459743370228072 4.4584780868359433 N
atom 1.5071057200041051 6.2380927398100612 14.5580822939982291 N
atom 1.6130218183443312 6.3217529748750128 9.5525311469854906 N
atom 1.4991230851909372 6.3340662353036441 4.4184363932056367 N
atom 3.2065761194731728 3.4861199107701322 14.7092844305708965 N
atom 11.0425756114513032 11.7474577027419738 4.5061390557164760 N
atom 12.5777217718291467 9.1177807721796942 14.6728104452040764 N
atom 12.4109037284337074 8.8894872131227185 9.5682055427821275 N
atom 12.4611384734096688 8.9654327498199695 4.4592820461372478 N
atom 14.0979328450491508 6.1908960558945436 14.5454991181889159 N
atom 14.1729349308710297 6.1939669597440288 9.5231243517950457 N
atom 14.0774577406637764 6.3291871755417395 4.5510682428655098 N
atom 6.1501677335367066 14.4676727494598492 14.6176313183141708 N
atom 6.3081746571892250 14.7312106514958892 9.5482290486027495 N
atom 6.1818345939048678 14.3583742917822317 4.4664214217658760 N
atom 7.9605883033736067 11.6803671504911382 14.6487743826419461 N
atom 7.7724557106090071 11.7083638342099317 9.5973415028536042 N
atom 12.5385788570812728 14.2567385001649054 14.6019838649025093 N
atom 12.4944879092696599 14.3617979300841228 9.5449200624050405 N
atom 12.4559125866091716 14.3805389190427295 4.6007573704752582 N
atom 14.0196636158108223 11.7120266918079956 14.6345483762370296 N
atom 14.0718335022796204 11.7210529803967489 9.4595801432708857 N
atom 14.0282372337125807 11.7927996297288402 4.3620314834492389 N
atom 9.3176888181785067 14.5565653631566665 14.6245250316347093 N
atom 9.3597067082347696 14.5780230729645108 9.5759247455008047 N
atom 9.3527301125455367 14.3680735719619488 4.5397545738385308 N
atom 10.9249179335537647 11.7691975087666236 14.6300843408857641 N
atom 10.8866709540931605 11.6603677504184784 9.5331390139189605 N
atom 14.1199871458004775 0.8157582625322581 9.6832424259455809 N
atom 13.9076303840291544 0.8153993997878161 4.5119634269351563 N
atom 2.9481762747575662 14.4091076141150563 14.5001361565167741 N
atom 3.1982341076502130 14.4241257109280845 9.3980159954815683 N
atom 3.1355938774970373 14.4584497477652025 4.3627625888949675 N
atom 4.6931227876234187 11.7727324353099654 14.6572275822768283 N
atom 4.8015104223164773 11.8593623025562724 9.4890023645397612 N
atom 4.7166547115326063 11.7165087542206958 4.4813481463193856 N
atom 6.3327530920192849 9.0166508334252207 14.5905924014976360 N
atom 6.1993934836784730 8.8782031672821553 9.6435320175550299 N
atom 6.2290092292892423 9.0846973415041834 4.4197083890470630 N
atom 7.7811884575884358 11.6616626565217771 4.5774707998419073 N
atom 9.5509126572350116 8.9209200033308687 14.5189482813645174 N
atom 9.2897288675904868 9.0047558474076084 9.5243870402716109 N
atom 9.3247068612697603 9.0554582140382287 4.5814357992706283 N
atom 11.1058917224274740 6.2876348901401053 14.5369418091320011 N
atom 11.0746640988683396 6.3072112678574319 9.3420512379021012 N
atom 10.8516047689834991 6.2194595277839815 4.6969109440068753 N
atom 12.5172139164335885 3.6685090225749848 14.6342353407008030 N
atom 12.5906069303296224 3.5306803867512833 9.4351337838751146 N
atom 12.4862885237056584 3.5889345168450140 4.4435619440206917 N
atom 13.9305746953767784 0.9017585423051799 14.5955511544529948 N
atom 6.3803707703126014 7.2947142034694830 1.8975808549322792 N
atom 7.8467864770284841 4.4558398655006757 11.9827774697059013 N
atom 7.7675652932070500 4.2310503111674418 6.9931036185448274 N
atom 7.6269812517052591 4.5521334756753831 1.9195350985359625 N
atom 9.5119904102444206 1.8793677183063218 12.0993594043922226 N
atom 9.4978231329876035 1.6526733804332550 6.9433172019248532 N
atom 9.2409166110696805 1.8153908288313063 2.0247837674415385 N
atom 0.0411191735458660 12.5463731888927850 12.0266771982136635 N
atom 15.4861452447480179 12.4854062517695237 6.9545384572526592 N
atom 15.4859683778630899 12.6812734063216404 1.7362433102312778 N
atom 1.6124227063733581 9.9071392599237935 11.9972297195352002 N
atom 1.6743832923266744 9.9614414382728729 6.9659591737135322 N
atom 1.5478364432932650 15.3570199431622196 12.0732689792761363 N
atom 1.5291876981626449 15.3805373202718112 6.9584719445447432 N
atom 1.5645684965078404 15.3390472731737582 1.8648822651766519 N
atom 3.1495957558682512 12.6333908457057866 12.0892831399708385 N
atom 3.0400337544594982 12.5979722790470099 6.9446211643242197 N
atom 3.0494229588706343 12.6837356792781115 1.7946770343938887 N
atom 4.6508228008855230 9.9034195979104958 12.0094433845497619 N
atom 4.7413939005633052 9.9122726207474798 6.9523887453440203 N
atom 4.4872328393822718 9.9639782896303917 1.8932107143131762 N
atom 6.2018168935058897 7.1258968630610324 12.0715334990033991 N
atom 6.2344150432422190 7.1171764965137507 6.8573189400442294 N
atom 0.1288173775994687 7.3501504963876370 6.9974761436530066 N
atom 15.5106711041582237 7.2182566295004404 1.9273726902295814 N
atom 1.5498338839674959 4.5578229022483896 12.1659550696648981 N
atom 1.6162770452719182 4.6197115022652513 6.9517338148791561 N
atom 1.5550910317767899 4.4383536399442001 1.8788175968695953 N
atom 3.1652744767445991 1.8926950300159355 12.1606987957997124 N
atom 3.1362375084522696 1.8020177194653075 7.0985909148329380 N
atom 2.9593443164917597 1.8547073585760585 1.9921755540009836 N
atom 0.1005819946500270 1.7236928113060801 12.1743913461710420 N
atom 15.6073370759809791 1.7735464247169810 7.0982700452840106 N
atom 15.5321507658408571 1.7237856225692725 1.8940212854504519 N
atom 1.5132404210066288 9.9638249558507148 1.8946089576733591 N
atom 3.1365979653706444 7.2596687910026345 12.0193147709902881 N
atom 3.0191619024761640 7.2468656297888039 6.9830049970674972 N
atom 3.0721060495632773 7.2269131659723183 1.9453275546509230 N
atom 4.6355326430666119 4.5806184253349720 12.0855701733015763 N
atom 4.5896580595831660 4.4769882285981293 6.9680678762368231 N
atom 4.6440703785670578 4.6187599599350024 1.9691666064766997 N
atom 6.2327416145430306 1.9657171100961905 12.0933776291396597 N
atom 6.2741622984101788 1.7172913346558674 6.9083333784787371 N
atom 6.0393649816753667 1.7851770983440145 1.9363949242874221 N
atom 0.0301449379798954 7.2421261519034861 11.9812902800129031 N
atom 14.0072481371028044 9.8422521703852990 1.9629319872245541 N
atom 7.7793662815665137 15.4532100960006833 12.1289453524299127 N
atom 7.7454982908940035 15.4813859298610534 7.1436976321270098 N
atom 7.7438765846785351 15.2809638348678369 1.9393636809413795 N
atom 9.4064606871491190 12.7099245193172408 12.1344723915608306 N
atom 9.3577621342258883 12.6164462723330804 7.1599630457239911 N
atom 9.3648291510296957 12.6334870895226352 1.9861665463314206 N
atom 10.9660229465004839 9.8594599658261100 11.9228649885542399 N
atom 11.0352221079545902 9.9685898596952143 6.9185231554575592 N
atom 10.8944403222142991 9.8868186237880131 1.9624443666832114 N
atom 12.5379240993283929 7.3020329298083970 11.9939093527785623 N
atom 12.5824137262298237 7.1647560797459011 7.0996998478993767 N
atom 14.1395920415550744 15.3728313712177656 12.0722369509679375 N
atom 14.1114900062847433 15.4589872225629925 7.0562567707070549 N
atom 14.0133286679174276 15.2987575660647650 2.0666422977585666 N
atom 10.9410275184068837 15.3615175100453243 12.0817187783854223 N
atom 10.9634474333026937 15.3482391893511405 6.9926154641760796 N
atom 10.9215400626065282 15.3296288278048838 1.9662496261862432 N
atom 12.4873847950873511 12.5516612841871336 12.1175469073542779 N
atom 12.6351516885752790 12.8025044588445844 7.0407118780037008 N
atom 12.4185235288066984 12.5226627650719031 1.9602150294064560 N
atom 14.1655992619228339 9.8848730420143429 12.0759217483792511 N
atom 14.0434123871269332 10.0063907288829181 6.9233705350655770 N
atom 7.8025552599608154 10.0407223304573741 7.1875134662237086 N
atom 7.8502466293162554 10.0310377894829390 1.8134432643748124 N
atom 9.5152868768656003 7.1572623842296954 11.9622884091733592 N
atom 9.2676576461897859 7.3022465589517473 7.0698330220583134 N
atom 9.4228256472998577 7.2644228579288983 1.8214373965144519 N
atom 11.0498993460027588 4.4434946967492790 11.9772782112930471 N
atom 10.8942552587798360 4.3930345889106182 6.9429511058383397 N
atom 10.8407361238924604 4.5690918637685636 1.8797922871325092 N
atom 12.4698336793355011 1.8210043041105581 12.1316010045955132 N
atom 12.5487721202141618 1.8034972850233775 6.9424380780650861 N
atom 12.5064180705009012 1.8943098429345375 1.8224421608775805 N
atom 12.4665485235007019 7.1696771146477669 1.8667555249064800 N
atom 14.1673755881986505 4.5259681629497130 12.0526709609376148 N
atom 14.2031661066648436 4.5091533873183698 6.9240531647087700 N
atom 14.1114269533932255 4.5123139051453860 1.9331486676365455 N
atom 4.6134098031776780 15.4069663303761057 12.1298177435973003 N
atom 4.5682255341595743 15.2835773469234422 6.9985099944245261 N
atom 4.5059719387518369 15.3114373094515539 1.9027088050825280 N
atom 6.3421570965468748 12.7407071771126326 12.1423340374029305 N
atom 6.1869534154087340 12.6734880106508712 6.9939520250289986 N
atom 6.3523681578946345 12.5723930842237746 2.0438764881266858 N
atom 7.8334303087739778 9.8950703575997618 12.0578118592069270 N
