#===============================================================================
# Created using the Atomic Simulation Environment (ASE)

# Thu May 11 09:00:40 2023

#=======================================================
lattice_vector 16.5841519999999996 0.0000000000000000 0.0000000000000000 
lattice_vector 0.0000000000000000 17.2347563186669994 0.0000000000000000 
lattice_vector 0.0000000000000000 0.0000000000000000 16.1779175999999900 
atom 16.5260842833571608 15.3753146505509779 2.6674342176842543 Ga
atom 1.7906993543198464 12.4030752999952441 13.4277370226439441 Ga
atom 1.5883887735051776 12.5041056941738749 7.9606316256496950 Ga
atom 1.5848116199289024 12.4330723901325761 2.5957056234798297 Ga
atom 3.4367814158706107 9.4021815662610901 13.3976805686476048 Ga
atom 3.3886567519047426 9.6196234731231627 8.0657303919027719 Ga
atom 3.2596556381033968 9.5060740054875676 2.8201441080091665 Ga
atom 5.0661285652207386 6.5120618939179238 13.4638593200273391 Ga
atom 4.9941403574365557 6.7325699068294966 8.0120030325069518 Ga
atom 4.9844459307098967 6.7430595757254119 2.6984644481102120 Ga
atom 6.6546217147032003 3.8303678476192951 13.5906541366279896 Ga
atom 6.5806078135518753 3.7745476100644382 8.0567150102056111 Ga
atom 8.3501637223853340 6.7962329106424262 13.6063360946945817 Ga
atom 8.3258493072936446 6.5925196505817931 8.0712879991371764 Ga
atom 8.2492894493661186 6.7231690539328266 2.6574313593701384 Ga
atom 10.0300772541734204 3.9318491166624647 13.4927026798132523 Ga
atom 9.9777665801762527 3.7165272347598006 8.0937779891470267 Ga
atom 9.9319995588848773 3.8252057122639642 2.8260203454055111 Ga
atom 11.6576562960976631 0.9380489573814860 13.4519208774136434 Ga
atom 11.8204423958906375 0.8639192161243106 8.2254931578537409 Ga
atom 11.5842578809597381 0.7962532063925810 2.7741614964779870 Ga
atom 0.0437403893400042 15.2467896411004489 13.4283031139718876 Ga
atom 0.0550657782760463 15.2809813295157344 8.1085101583208257 Ga
atom 3.3421179870668789 3.9201055455376910 8.0667804895285133 Ga
atom 3.2534542235727248 3.8716515688179491 2.6445411533876357 Ga
atom 4.9740031986426478 0.9727994136574803 13.5341381734908879 Ga
atom 5.0172538672321947 0.8060454751050214 8.0148122857729991 Ga
atom 4.9562431841763326 0.9225194478471017 2.6659843951277660 Ga
atom 16.4909083273768609 3.8668654138285614 13.5500913191998400 Ga
atom 0.1167664755756182 3.8242588841026799 8.0763479380820264 Ga
atom 16.4853511621488025 3.9875807427748891 2.7374998073446686 Ga
atom 1.5852792032343421 0.9886302080470553 13.3704156901585609 Ga
atom 1.6986233871748910 0.9990885893213851 8.1005085227610554 Ga
atom 1.6727449305154505 1.0090412843658751 2.7742963698725536 Ga
atom 6.5869094164816806 3.7706906274099286 2.7907934479836798 Ga
atom 8.3009718341793945 0.9427355572709519 13.4195970756729359 Ga
atom 8.3945561327814886 1.0090886256078393 8.1455465444246666 Ga
atom 8.2955350513769890 0.9114360703227282 2.6194777189609431 Ga
atom 0.0125833667072423 9.4909297438198692 13.4701313578698816 Ga
atom 0.0998389670385898 9.4735455074113393 8.0089799118742881 Ga
atom 0.0294621364874306 9.5563029029771940 2.7061655312305395 Ga
atom 1.6756747911935643 6.6484055611847372 13.4369608341602973 Ga
atom 1.7930725026764469 6.6946581556629319 8.1060491300024768 Ga
atom 1.5788503889773366 6.7286362233129573 2.6226653706267582 Ga
atom 3.2629917602797431 3.7431074201879366 13.4959496018786922 Ga
atom 11.5151016163261168 12.4857622348824631 2.7266878235999772 Ga
atom 13.2527885365082820 9.5214247800826239 13.5208206514332847 Ga
atom 13.1513309043380371 9.6188742874462552 8.1466003582950677 Ga
atom 13.2806137495153802 9.6888970344245333 2.6898891718960969 Ga
atom 14.9697275132497616 6.8004914281034790 13.5078890938259359 Ga
atom 14.8464990053067840 6.6638899149356021 8.1953389730935822 Ga
atom 14.9765056086859936 6.7703554951368625 2.7186238209595293 Ga
atom 6.5568437369078243 15.2319818109096889 13.4591965088444816 Ga
atom 6.6160876898005450 15.3287767594825688 8.0512229143490774 Ga
atom 6.6563378726921938 15.2830249724188771 2.6519206631767456 Ga
atom 8.3034760116101118 12.3749226174822073 13.4065769228890037 Ga
atom 8.2564149594422354 12.3320722562006733 8.1066932082439269 Ga
atom 13.3266143345482835 15.2573183316222956 13.4492896510668700 Ga
atom 13.2296402863789648 15.2668296462357862 8.1968679939608702 Ga
atom 13.2217503014133957 15.2984918427479464 2.6700206926619354 Ga
atom 14.9944902029046254 12.3729920503044717 13.5476404584635937 Ga
atom 14.9955312018332467 12.2688828376583778 8.1298948357091749 Ga
atom 14.6995103079803044 12.4860951642775984 2.6431965466104264 Ga
atom 9.9118079980253295 15.2985732345776704 13.4603190186663255 Ga
atom 10.0332112015957513 15.2523218325260768 8.0973171874000656 Ga
atom 9.8636614594042626 15.3389407675774052 2.7802428963995047 Ga
atom 11.5515436218844041 12.5392616877157579 13.4612691338605988 Ga
atom 11.6157398703277313 12.4588414359372273 8.0541325377308119 Ga
atom 15.0027583721272784 1.0328120361529043 8.0848763655438329 Ga
atom 14.8747323551103729 1.0322108305257458 2.7650393630475620 Ga
atom 3.3795632565434945 15.3665654063163224 13.5157317317387768 Ga
atom 3.3707813353805536 15.2874078710188108 8.0865451700783808 Ga
atom 3.3192879847858681 15.4195435825656819 2.7659092635263440 Ga
atom 5.0922465939120469 12.4196541857894758 13.4260888626159325 Ga
atom 5.0821584663535608 12.4974211745750168 8.0209984027691004 Ga
atom 5.0236650022423586 12.4347654164003867 2.6668211153972452 Ga
atom 6.7298175218767158 9.4068370780516091 13.5397095360110562 Ga
atom 6.6744470307227735 9.4795113967436642 8.0756711459481014 Ga
atom 6.5966300896629253 9.5064722226657370 2.4267474216853988 Ga
atom 8.3022766753015418 12.2968097852495006 2.5899418119201134 Ga
atom 9.9470287819557406 9.5436356135881972 13.4297862476121797 Ga
atom 9.8643104371449670 9.6019544981127520 8.1487365581054423 Ga
atom 10.0435987808689529 9.5561886439370269 2.8251247414844110 Ga
atom 11.8661243943384580 6.7364496769858206 13.5447875674572522 Ga
atom 11.4659805182919108 6.6975857704718322 8.1377596979955502 Ga
atom 11.6893434609548059 6.7650067528967259 2.7264662280665495 Ga
atom 13.2119949302746296 3.9091858153391512 13.4559174272670781 Ga
atom 13.2589690239592493 3.8271142401342644 7.9704183555804891 Ga
atom 13.1866825422378007 3.8783137135891699 2.7581433239236794 Ga
atom 15.0056986877682519 0.9665627119499658 13.4540928502558792 Ga
atom 6.7430102075684939 7.5819276120654626 5.3614783726312290 Ga
atom 8.2981770287827832 4.7643857125180498 0.0600084095325582 Ga
atom 8.3813532879305743 4.7734586256544027 10.9528195851692285 Ga
atom 8.3013484374394153 4.7722969942377844 5.4814541364629221 Ga
atom 9.9987545942773757 1.9852195682455556 0.0766485074362624 Ga
atom 9.9251996334452812 1.8495290634600352 10.7388317408327438 Ga
atom 10.0133932328449120 1.9354931102684219 5.3303417086751459 Ga
atom 16.5791771665782015 13.3841305316281591 16.1539561645525040 Ga
atom 16.4709886057410095 13.4327180841582710 10.8051956919519014 Ga
atom 16.4963908082004949 13.4263283877459774 5.3112013200322306 Ga
atom 1.6355710973369590 10.4959388055297307 16.1251899581258336 Ga
atom 1.6938943106530673 10.5743424278390208 10.8252460924604534 Ga
atom 1.5963205203585915 16.3741570990677339 16.1684249869008276 Ga
atom 1.6898353464044706 16.3539905331607613 10.7611024182603785 Ga
atom 1.5863335466486335 16.2998444461547116 5.4653346195236212 Ga
atom 3.2430648964843001 13.4015632942138243 0.0643288937081052 Ga
atom 3.2128279306936047 13.3241017733046370 10.8135577378303012 Ga
atom 3.3541800844296090 13.4845476715136723 5.2865335608878796 Ga
atom 4.9286903211264388 10.5819548552619604 16.1561926878667528 Ga
atom 4.9201439417610144 10.5447578439638310 10.8119071625513037 Ga
atom 4.9479600223057973 10.4626019308003286 5.2816713568615423 Ga
atom 6.7047078877854638 7.5604235753120959 0.0900230407535864 Ga
atom 6.6694077278152495 7.6315844670059363 10.7993097568837211 Ga
atom 0.0647812135222067 7.6295226859875855 10.7577215193642246 Ga
atom 0.0009204886656890 7.6323370679290505 5.4208256689177530 Ga
atom 1.6268653230883758 4.8454472941938747 16.1412747951803439 Ga
atom 1.6251729016780565 4.7425348425035736 10.7373401126720260 Ga
atom 1.5599208738356998 4.7425386290317588 5.3510535080767516 Ga
atom 3.2757639703773762 1.8687533860226568 16.1774708521765334 Ga
atom 3.4199505311878236 1.9163755610537827 10.7468442632847943 Ga
atom 3.2974823427925899 1.9341240461360061 5.3884174048129099 Ga
atom 0.0020690009425644 2.0063481967171044 0.0491735945042828 Ga
atom 16.5822122499928710 1.9378713915196366 10.7716707541900600 Ga
atom 0.0236833111206423 2.0144937079918406 5.3670972089731430 Ga
atom 1.6275821935174493 10.5611119794331323 5.3417751954566670 Ga
atom 3.3769672471489236 7.6768247855304406 16.0805227554732966 Ga
atom 3.2961242224761089 7.7908007836932294 10.7978190032646655 Ga
atom 3.2389939687675966 7.6189011022786994 5.3680054107579096 Ga
atom 4.8347376695238822 4.6900766250186985 0.0600573105151898 Ga
atom 4.9679957081480470 4.7908185430624037 10.7524371886132961 Ga
atom 4.9211017210468988 4.8256799871153033 5.3107798715962762 Ga
atom 6.7261524497274587 1.8351984722379295 0.1010835050654452 Ga
atom 6.5690880294329581 2.1071590922831871 10.7761355472677227 Ga
atom 6.6694369354559164 1.8666277758833214 5.4352513520128820 Ga
atom 16.5721576865767197 7.7744160420725370 0.0802115629605637 Ga
atom 14.8569095033743892 10.5786622691672250 5.4155009209301257 Ga
atom 8.3730313837460990 16.1540047395816373 16.1007607800186250 Ga
atom 8.2612886312010527 16.3474341831933856 10.7386426621209754 Ga
atom 8.2595824293131805 16.3179558135732705 5.4179658443812668 Ga
atom 9.9031190860715110 13.3291268229864759 16.1116924867215090 Ga
atom 9.8837193325582504 13.4525269678678310 10.8008908883064656 Ga
atom 9.7986007295193982 13.4340921643315667 5.4516097070611274 Ga
atom 11.5860964940003424 10.6331930124266183 16.1698739612495821 Ga
atom 11.6175548081521836 10.6431092740262763 10.8238824629058517 Ga
atom 11.6042029139136265 10.6314946164529740 5.4401681195541221 Ga
atom 13.3545091783365102 7.6529030167208862 0.1347348819276072 Ga
atom 13.3814035320322038 7.5200394365884558 10.8743149380850124 Ga
atom 14.9426049304617568 16.3642017206937069 16.1054251016718517 Ga
atom 14.9872754881178896 16.3177808919952660 10.7900802702106589 Ga
atom 14.8514449648181035 16.3643087292563010 5.3256762350445035 Ga
atom 11.6456623487041959 16.2652187173560598 16.0987935191219691 Ga
atom 11.5637945324291600 16.4045932898633460 10.8200453429614960 Ga
atom 11.5928926774718182 16.3019154102771004 5.4197857367067588 Ga
atom 13.2407704328197813 13.4896002775759403 16.0683674211733312 Ga
atom 13.2050522145755167 13.3306401615702157 10.7602995174353477 Ga
atom 13.2863964521239009 13.4038857379869825 5.4705692621323667 Ga
atom 14.9004785007366021 10.5151789997493808 16.1608255230736084 Ga
atom 14.9480250010844973 10.5024819920696988 10.6953016161484200 Ga
atom 8.2058737150131194 10.4678415961537219 10.8188220355935130 Ga
atom 8.2439156093364527 10.5822455085144007 5.2197035053161613 Ga
atom 10.0485916177796550 7.7511644653123746 0.0342439820734560 Ga
atom 10.0671743609861224 7.6191496802219545 10.8583230559457320 Ga
atom 10.0102184488992414 7.6774301501168036 5.3601043002405220 Ga
atom 11.6437587983253401 4.8555011593919639 16.1391765137338012 Ga
atom 11.4534307498450811 4.6566932774663741 10.7868587117352721 Ga
atom 11.5670304755172122 4.8987887868020970 5.4713371247145810 Ga
atom 13.1628997628881432 1.8968833845649575 16.1535524412685092 Ga
atom 13.4131702528557550 1.9682501436154440 10.8027871694922197 Ga
atom 13.1794967533248322 2.0253308213677768 5.4732086242136386 Ga
atom 13.3265386857241701 7.7027504089864625 5.5207190847814704 Ga
atom 14.9197117169742697 4.8896747780914449 0.0288199415883501 Ga
atom 14.9078943450192174 4.7325866270192254 10.7501924182222979 Ga
atom 14.8391405696657159 4.8429360212400692 5.4638757008590293 Ga
atom 4.9231371165200857 16.2465120895012305 0.0208906035793845 Ga
atom 4.9437542478285943 16.3553768228058054 10.7783004248768339 Ga
atom 8.2322655217494916 10.3564503419710405 16.0662644874779730 Ga
atom 6.6556038519905272 13.3300014977673555 5.3099763424739903 Ga
atom 6.5046600771776655 13.3417547572382187 10.6395176876864994 Ga
atom 6.6308021473583629 13.3748869211918677 16.1334958324700040 Ga
atom 4.9895674197779289 16.3045860415023576 5.3834842048605411 Ga
atom 3.3027911723459038 9.6124172077791084 10.1075140048126588 N
atom 3.2401966148889825 9.5736080098419905 15.4062127869822874 N
atom 1.6162991574552918 12.4525664122173456 4.6106699126203372 N
atom 1.6429605005390187 12.4905327305623608 10.0793181974787469 N
atom 1.6391814454543576 12.4305143480259268 15.5537337098496167 N
atom 0.0515319313347056 15.4273607588009654 4.6245048323120423 N
atom 3.2967459130436696 9.6183811402173962 4.6979486297561417 N
atom 4.9577527709030287 6.6154497343864938 15.5630860316040671 N
atom 4.9661031616288422 6.7792619137697745 10.0725018257096028 N
atom 4.8369377528060387 6.6984501869118684 4.7311254182764717 N
atom 6.6907548918549580 3.8598511013309946 15.6004657428665272 N
atom 6.6611866645633864 3.9464178834949011 10.1238532200619993 N
atom 8.3417424366308364 6.7869435582894075 15.6093886805039066 N
atom 8.4776613918923989 6.6664196394686410 10.1760574921181313 N
atom 8.3298575952201173 6.6446360986311790 4.7344900959663150 N
atom 10.0224974545696650 3.8663171855683722 15.6249291046851901 N
atom 10.0079396806165075 3.7318705482794208 10.1205002287763151 N
atom 10.0281810282939219 3.8089510169234240 4.8552763469292461 N
atom 11.4276337007273447 1.0115441420538536 15.5259832154874537 N
atom 11.6766029895296555 1.0141675457393142 10.1206292076967745 N
atom 11.6665582185517653 0.8680590021283460 4.7996201496251230 N
atom 0.1052100943504194 15.3412166551038371 15.5430214943863856 N
atom 0.0764812197770128 15.2957579821059060 10.2468025677583583 N
atom 3.3696481605748887 3.6578518941020248 9.9931826446213883 N
atom 3.2955630532707132 3.7556121725182381 4.7705139732582458 N
atom 5.0663571853320315 1.0780164244678134 15.6148466716978476 N
atom 4.9817911368757457 0.9469350127501337 10.0558329018378192 N
atom 4.9536930521251019 0.9992945516727326 4.7021180204724882 N
atom 0.0740756433150441 3.8709756475100305 15.4076235800111707 N
atom 16.5592808076959948 3.8892111193279568 10.1149075365656209 N
atom 16.4861471973982674 3.9864325021312421 4.8079425739207569 N
atom 1.5739016016724077 1.0817526240578381 15.3773980436075171 N
atom 1.6594697259111093 0.9722905696209534 10.0985067179768091 N
atom 1.5795422892689908 1.0885823821666913 4.8503874202317219 N
atom 6.6372271383757804 3.8917387239513279 4.8497039975043341 N
atom 8.2768765520529168 0.8505730016739220 15.5263444207887940 N
atom 8.1778667732836734 1.0484059063154032 10.1539762125247979 N
atom 8.2965518146429709 0.9450691012186958 4.6755424369687724 N
atom 16.5553357577763194 9.6411555325043423 15.4603104035051935 N
atom 16.4998908427267850 9.5697108522618102 10.1307646252015857 N
atom 16.5496240625662203 9.6080806743646665 4.7015194834128637 N
atom 1.6446042606497748 6.8051461289657951 15.5894069120469361 N
atom 1.7174632175267139 6.6461656531772260 10.0439286555682710 N
atom 1.6036292801518270 6.7200827373943168 4.6493851346314985 N
atom 3.2931101944225465 3.7199104491169415 15.5479244639904000 N
atom 11.5824037929412569 12.5828006148318430 4.8384820294256246 N
atom 13.2661834519260626 9.4981153992004952 15.5304070894551192 N
atom 13.2920983603821092 9.5995111218044435 10.2193145308856295 N
atom 13.1403099737697104 9.7254288348035978 4.7812964229872641 N
atom 14.8101583953719036 6.7586574278420315 15.5329568153781103 N
atom 15.0041465734854729 6.7685695227311538 10.1503240999852942 N
atom 14.9488310944690816 6.6590270384557320 4.7627924257406260 N
atom 6.7084254946636515 15.3334732395337223 15.5030936095955649 N
atom 6.5562803173951956 15.3150026715582968 10.0906084878287743 N
atom 6.6740766456198966 15.2629085123763044 4.6087696514884113 N
atom 8.3138183870938640 12.3233335945534694 15.3519705263860828 N
atom 8.3190802062977909 12.3777859816474507 10.0229683481373204 N
atom 13.3709146057191983 15.3215394384045425 15.4147031508095154 N
atom 13.3253238355357801 15.2830395309453451 10.1387519905607864 N
atom 13.3107818788744794 15.3883509998897843 4.6900351285763566 N
atom 14.9671368927685808 12.4078760193207636 15.4798910449585954 N
atom 14.8124278398891551 12.4436925727479775 10.0589666553015480 N
atom 14.9177439870235524 12.3922398143758610 4.6410481629370288 N
atom 10.0350574273216715 15.2792402084626016 15.5076592820742913 N
atom 10.0384607907743302 15.3364211172244289 10.2603915373070667 N
atom 9.9316501778901181 15.3841058026598461 4.7997641511191391 N
atom 11.5800352546510439 12.4923127991841945 15.4797194293084335 N
atom 11.5394711432105233 12.4483692741190168 10.1570319022151878 N
atom 15.0260495654274671 0.9941090934437351 10.1243298035867753 N
atom 14.8356802690138423 1.1132469619430059 4.8432760056824948 N
atom 3.3030945940963221 15.2736266524703943 15.5612603676823866 N
atom 3.2388584789491390 15.3228443415659132 10.1822071702356833 N
atom 3.2588477756397234 15.3249437634690668 4.6570261697188524 N
atom 4.9461638030495285 12.4867446668870343 15.4165947738212878 N
atom 4.8968803875510023 12.3988317228754852 10.1279947073856249 N
atom 5.0151498678815045 12.4307756417196558 4.6810584671034583 N
atom 6.4862554452961234 9.5770107140197336 15.5757587733799721 N
atom 6.4937609130582690 9.6183505985065860 10.1715620851607653 N
atom 6.5903984023742606 9.4464637381698129 4.5412391761135256 N
atom 8.2292978991665642 12.4622457357671355 4.5775122953631824 N
atom 10.0428638582698557 9.5747141927047181 15.4639853797384710 N
atom 9.8702989884663399 9.5354056845337940 10.1875526461237751 N
atom 10.0382792323854844 9.5841231727338023 4.8115590590877355 N
atom 11.6467363520698086 6.7867889784175706 15.6769239595830090 N
atom 11.6884392427644865 6.6421459717534042 10.0977453363927943 N
atom 11.6264217706420503 6.9150913155515239 4.7640575189594419 N
atom 13.3138692822385529 3.9813948015143685 15.3976244961092554 N
atom 13.2562657136536082 3.8811974239698857 10.0121966699851921 N
atom 13.2962902930009950 3.9412051159164059 4.7368236925019804 N
atom 14.8967673144828456 1.0276675676676668 15.5948965205098116 N
atom 6.6497713551745745 7.5529982745554252 2.1832534048592414 N
atom 8.3558807079739204 4.8752713651378388 12.9444389575091972 N
atom 8.2853813781476848 4.6468011350469638 7.3804610957190189 N
atom 8.3736288748973422 4.7308000607014016 2.0873742563002304 N
atom 10.0118957660881485 1.9464154824094713 12.8402386570269016 N
atom 10.0903429264787476 1.8436068661073619 7.4137594327812240 N
atom 10.0688960011329005 1.9225341544577068 2.0247240238861646 N
atom 0.1054292983047579 13.3283723209914928 12.7994888116195540 N
atom 16.5466940490656427 13.4347435891597424 7.3081081681790678 N
atom 16.5016472524291800 13.4109450017735465 1.9260618880890545 N
atom 1.7747066091749177 10.4214294443343700 12.7809149163659530 N
atom 1.6234908886594803 10.6190624620986043 7.4135878156965651 N
atom 1.6673852567957892 16.3385807767633686 12.7592638784838552 N
atom 1.7053260229257812 16.3119516407829011 7.4859025379002029 N
atom 1.5872077839079703 16.3576373094508511 1.9919887411078321 N
atom 3.4247178529582420 13.3722647560595931 12.8992147507643669 N
atom 3.3756995705798860 13.5144600302496141 7.2954470355090688 N
atom 3.3919791787600055 13.3554181023555856 2.0421999066333862 N
atom 5.0544967534906773 10.5585006252657152 12.8236815781907545 N
atom 5.0373160716031551 10.5631611163974242 7.3516726982927256 N
atom 4.9663199303676278 10.4964719268343760 2.1377586197911520 N
atom 6.6054300428832944 7.5109901160524615 12.8510756592678970 N
atom 6.6174303248364099 7.6533304497086956 7.4601730318398776 N
atom 16.5642801794156682 7.4714250355372744 7.4322554285100582 N
atom 16.5573177733508956 7.7219129909956754 2.0861986027546795 N
atom 1.5776267602392366 4.7996835868462693 12.8406165360855855 N
atom 1.5993657834552850 4.7501471941325377 7.4290712571692428 N
atom 1.6314327837042677 4.8147118150422346 1.9663754281023385 N
atom 3.2370036253416887 1.8918107884731010 12.8532772776746516 N
atom 3.4023158692586430 1.9280492011157102 7.3259576968912787 N
atom 3.4010912904456534 1.9498709286265130 2.0474427423529087 N
atom 16.4862921086082999 2.0681120801010109 12.8340484896501792 N
atom 0.0284118827041265 1.8950447810611115 7.4423088704234814 N
atom 16.5029506114999585 1.9465895823001336 2.0474977656966464 N
atom 1.6120487680018230 10.5583991248545477 1.9965633708611130 N
atom 3.3288539196833153 7.4422025220895636 12.7543378886868766 N
atom 3.3689427960130547 7.6122790063553927 7.4724416100974862 N
atom 3.2396381312233151 7.5915110663167056 2.1028267503191049 N
atom 5.0131873497378718 4.6657899244956891 12.8634140882178833 N
atom 5.0558884440746832 4.9667278699001596 7.3833838756348307 N
atom 4.8761194901441103 4.7750761371447386 2.0985336136978137 N
atom 6.6332605415035868 1.9858315842917498 12.8602514287862721 N
atom 6.6823508664838611 1.9060021667605596 7.4537271424790399 N
atom 6.6311329475148284 1.8684985037277344 2.0964022194637679 N
atom 0.0145875534128959 7.6119864938784527 12.7559802467423946 N
atom 14.9139355791232102 10.5816945736944632 2.0030045038051365 N
atom 8.2801944389368671 16.2067998978973726 12.7663761312511124 N
atom 8.3374215225893842 16.3013421273851051 7.4815830952512252 N
atom 8.2418079929261570 16.2373181162473763 2.0441277998097047 N
atom 9.8677738045710637 13.5060307599270910 12.8425824020655668 N
atom 9.8161785979719376 13.3506590906034948 7.4063103756837405 N
atom 9.9165815703032649 13.3904487534771253 2.0047469894522112 N
atom 11.6143087128789624 10.5782040496245919 12.8365523523673080 N
atom 11.4968204350282353 10.5384123999577231 7.4539641072407790 N
atom 11.6903798528592375 10.5957910011757601 1.9986454086944401 N
atom 13.2492338925270552 7.7080832471115253 12.8963698963649218 N
atom 13.1661602422841373 7.7253344028504456 7.5932335051940294 N
atom 15.0332556406093385 16.2561477596213848 12.8194724297743630 N
atom 14.9467019310798950 16.3442155185796096 7.4959333372452903 N
atom 14.9063641809215017 16.3601043512182471 2.0007672559267733 N
atom 11.5940637251690788 16.2708323735480391 12.8903919118652279 N
atom 11.6257456105159953 16.1997697385510016 7.5899484658820082 N
atom 11.6090912721934654 16.1915035855638401 1.9975398947851835 N
atom 13.2311555144039747 13.4569372830615706 12.7849106201210923 N
atom 13.2703453296385305 13.4032676982476477 7.4436431201196847 N
atom 13.1744525954864162 13.3990809395096928 1.9219328517146772 N
atom 14.9848071192778907 10.4568858694134921 12.8525729926448662 N
atom 14.9034747326325139 10.4023617279219938 7.3749428843250859 N
atom 8.1923036832906533 10.5297610958863412 7.3815866904927629 N
atom 8.3217369170988800 10.3757577941393837 1.9041788228515117 N
atom 10.1439502186350232 7.6537219364217037 12.9597078372103383 N
atom 9.9869700242354735 7.6936474342468708 7.3715790512480828 N
atom 10.0664362653244712 7.6900442536189617 2.0281248742487024 N
atom 11.6450135608900087 4.8800080748081305 12.8441135058646587 N
atom 11.4905452453283914 4.8124061294807623 7.4293735293117820 N
atom 11.5076119447501721 4.8395265104088567 2.0993481950172082 N
atom 13.3167814163965339 1.9199922125890414 12.8237006288006352 N
atom 13.2711381061782525 1.8801422799144061 7.4654949715731611 N
atom 13.2503039260354107 1.9227626918638865 1.9640146935509077 N
atom 13.3279894873789324 7.7394629949590685 2.1627789938093507 N
atom 14.7727829797044077 4.7786484600624064 12.8138571815434705 N
atom 14.9358378710211177 4.8234318864226395 7.5405731224175945 N
atom 14.9241640871825005 4.9179303613459791 2.0272145362360847 N
atom 4.9851446131065984 16.2809371740802256 12.8514096022446171 N
atom 5.0282144164600098 16.2383636907033591 7.3426281100880813 N
atom 5.0114725693235709 16.1951617796824827 1.9443572757623639 N
atom 6.7016348786561863 13.3478417394919919 12.7166843123844160 N
atom 6.7305416468939905 13.4173685665251892 7.3826658119041735 N
atom 6.6985254998878609 13.2891792796910693 1.9862460694739332 N
atom 8.3832374120351147 10.4691475358403956 12.8405475960271609 N
