#===============================================================================
# Created using the Atomic Simulation Environment (ASE)

# Thu May 11 08:59:45 2023

#=======================================================
lattice_vector 16.0100851999999989 0.0000000000000000 0.0000000000000000 
lattice_vector 0.0000000000000000 16.6381685999439100 0.0000000000000000 
lattice_vector 0.0000000000000000 0.0000000000000000 15.6179127599999905 
atom 0.0365256897275517 14.7622564957195053 2.6040222418588681 Ga
atom 1.6151796835549148 11.9087186326469734 13.0448826964513742 Ga
atom 1.5011614775062998 12.1231484611378821 7.8083613761033632 Ga
atom 1.5646487074315854 11.9960149584357403 2.4133688045181594 Ga
atom 3.1881264004806127 9.3097021808654237 12.9030869961311350 Ga
atom 3.1868723945680508 9.3200246558769795 7.7554326333883061 Ga
atom 3.1552241644090411 9.1312602427493150 2.5987620626279093 Ga
atom 4.7120903407971131 6.5210852718846235 12.9644016125407884 Ga
atom 4.8777922961554969 6.5336970070141751 7.8843320029726343 Ga
atom 4.8372799191046090 6.5005557327740666 2.5482108346440846 Ga
atom 6.4440654851167469 3.7783181483385437 13.1417189060948676 Ga
atom 6.3266743729944350 3.6302187555535048 7.7703985268310625 Ga
atom 7.9437831575482898 6.4052983318609931 13.0762429015572312 Ga
atom 7.9717004915859881 6.4449300664151545 7.8091595767661861 Ga
atom 8.0066589196671583 6.4979418638628044 2.6477606564161316 Ga
atom 9.5430646108532020 3.6890813295475309 12.9341626431944814 Ga
atom 9.6185207385452891 3.6160873135635181 7.8394966602666951 Ga
atom 9.5387663208165314 3.6873417446237062 2.6273683292684629 Ga
atom 11.1506243594876437 0.8755467032627440 13.1130641204706127 Ga
atom 11.2505513321487101 0.8674536696815601 7.8573591219046754 Ga
atom 11.2320315594293003 0.9265476185134884 2.6659884602626418 Ga
atom 0.0764551505164785 14.8402025439121221 12.9685656000417051 Ga
atom 15.9382124387129309 14.7851932214636896 7.8473118798612340 Ga
atom 3.1887299733896524 3.7435284042215988 7.8133219132453817 Ga
atom 3.2776986495407643 3.7415237422001972 2.6228909256673845 Ga
atom 4.7330759055769578 0.9115369730455642 13.0651143562985972 Ga
atom 4.9081818815044134 0.8498610584146514 7.7458459736675866 Ga
atom 4.7644350925975392 0.8758247066659802 2.6048599731170405 Ga
atom 15.9806370876076826 3.8351682978253523 12.9561469945434631 Ga
atom 0.0842164267858959 3.6503040814682377 7.7990063927949231 Ga
atom 15.9664284371811398 3.6851908384087184 2.5875704765280889 Ga
atom 1.5627794361242402 1.0131242306145098 12.9392848666128284 Ga
atom 1.6422402030171732 0.8886535815215160 7.8671331214955558 Ga
atom 1.6363218379410087 0.9942348297869152 2.6998505161387860 Ga
atom 6.3423508759501388 3.6700411199055245 2.7281644274512455 Ga
atom 7.9244744547087125 0.8976142838745953 13.0441731457031480 Ga
atom 8.0466448596198088 0.8755678609494225 7.8518757760863318 Ga
atom 8.0998843833457510 0.9435617791959130 2.5276377428198469 Ga
atom 15.9340660685807727 9.2910553913372755 12.9822652469654756 Ga
atom 0.0648899348604769 9.3163087573199377 7.7311961043350994 Ga
atom 0.0381797181664400 9.2253897096116706 2.5817124093390982 Ga
atom 1.6482936783834046 6.5158829362407582 12.9920854454552330 Ga
atom 1.6201758899127370 6.4921723387787242 7.7263257355134840 Ga
atom 1.5886066030503154 6.4624362377135398 2.6666605174303633 Ga
atom 3.1775869101424483 3.7181194645049391 12.9916339995180827 Ga
atom 11.1738171798985242 12.1076561787364891 2.5453414318814809 Ga
atom 12.8310668877706622 9.1784756304369672 13.0158491781472261 Ga
atom 12.8743527720405186 9.2393792015901095 7.9201422367332741 Ga
atom 12.7169117166191015 9.3928322905314676 2.5578346361260555 Ga
atom 14.4611330023077489 6.5020899498650264 12.9736748716747758 Ga
atom 14.3473182085470174 6.4853614553887251 7.8506557351205473 Ga
atom 14.4066316963789003 6.4737831723987087 2.6157466054500214 Ga
atom 6.4726263093622673 14.7610022331924764 13.0005240461263352 Ga
atom 6.4576909723928466 14.6861210988579334 7.6836117403022000 Ga
atom 6.4173830805468244 14.8360165183118262 2.6072891757025700 Ga
atom 8.0306371673699157 12.0732723145667080 13.0116419799531347 Ga
atom 7.9621375757917354 11.9129768368992561 7.8007393885253480 Ga
atom 12.8012603962411529 14.7862998339748781 12.9287267782940312 Ga
atom 12.7239824831776396 14.7814299081094855 7.7705056927593850 Ga
atom 12.9185989935200176 14.7822578122336079 2.6010851538720252 Ga
atom 14.4620524288959249 11.9929606504940498 13.0526916401427577 Ga
atom 14.3821271890650717 11.9831214102751318 7.8174622593356089 Ga
atom 14.4035172324627414 11.9507419676431557 2.6244965516463572 Ga
atom 9.6263485882566204 14.8365358202235758 12.9586181383196575 Ga
atom 9.5725835332819393 14.8040921464964388 7.9521987617116983 Ga
atom 9.6217532734507873 14.8267699392713066 2.6068651291098615 Ga
atom 11.1670477446453162 11.9497305686688460 12.9747467395333533 Ga
atom 11.1878971253049002 12.0278924139958860 7.8383472571049877 Ga
atom 14.3601541889008892 0.9448000556620710 7.8814635523585803 Ga
atom 14.4242898676015354 0.9084615190644126 2.6572079109959916 Ga
atom 3.2269909228156921 14.7487251306953944 13.0453308259975298 Ga
atom 3.3013902380858680 14.7717236283804816 7.8089868427122830 Ga
atom 3.1305915845462544 14.8049129328513001 2.5499409430961313 Ga
atom 4.8699712044239289 12.0190246962554141 12.9842845875428932 Ga
atom 4.7218854200717093 11.9628631687131826 7.7601098507813591 Ga
atom 4.7402491373824978 12.0744479489831331 2.5742891469148814 Ga
atom 6.4570774452775348 9.2312839939127436 12.9820680746479553 Ga
atom 6.3134961498290538 9.2415145576585846 7.8351363039959594 Ga
atom 6.3844333153354791 9.3063373638750786 2.5569684283842662 Ga
atom 7.9937997951759092 12.0039394878703014 2.6156153814172880 Ga
atom 9.5755673014986655 9.1348013914697628 12.9724508091823552 Ga
atom 9.6677699181885615 9.1777367888465697 7.7876165775893282 Ga
atom 9.7285797933766514 9.1999120129828906 2.5988188176151410 Ga
atom 11.2573536024070471 6.5635710165937367 12.9705939066376281 Ga
atom 11.1622277565095569 6.5016340939105675 7.7768539444823084 Ga
atom 11.2252780821856071 6.4654369170676231 2.5741244666948293 Ga
atom 12.7820977208307358 3.7118221210543685 12.9738314654467146 Ga
atom 12.8052152288360652 3.6138137833148685 7.8278914915697797 Ga
atom 12.7357785090959545 3.6872154273137672 2.6453938124886984 Ga
atom 14.3967402026400606 0.9127709660759457 13.0524304718121851 Ga
atom 6.3833821108802606 7.3995138958188322 5.1708972923085570 Ga
atom 7.9825231363950664 4.6104226838533817 0.0886455635564079 Ga
atom 7.9814131046707475 4.5621953834879632 10.4012061566283709 Ga
atom 7.9651868947162061 4.5962065489732877 5.2124641056630994 Ga
atom 9.5768407731863849 1.9790032363310874 0.0454279566569458 Ga
atom 9.5289981401326695 1.8680037748074132 10.4940962135692466 Ga
atom 9.6084593999586740 1.7501190020716588 5.2284240522505945 Ga
atom 15.9218506138550921 12.9576593708535608 15.5996526457555902 Ga
atom 0.0587469337939055 12.9707802737184750 10.4685315413199387 Ga
atom 0.0760248915320025 12.9637816415105380 5.1826390034202490 Ga
atom 1.5832172011018444 10.1519365599474032 0.0039259891243517 Ga
atom 1.5855244401387398 10.1729470989660360 10.4337294322118215 Ga
atom 1.5711605462968319 15.6582148726244466 15.5751554605821863 Ga
atom 1.6479034974205542 15.6531741460864513 10.3911149570088082 Ga
atom 1.6706918017139891 15.8080835524992285 5.3108987930693496 Ga
atom 3.1550505382394656 12.8472470881611844 15.4193549539574555 Ga
atom 3.2414362682198150 13.0274920848181974 10.3303051577121998 Ga
atom 3.2070011326094332 13.0376651040132430 5.1480031959332848 Ga
atom 4.7752220117858899 10.1708960519224885 0.1542943992381089 Ga
atom 4.7198067147600327 10.1431044778642239 10.3610435648757413 Ga
atom 4.8191409235542570 10.2228697243127709 5.0456064692880851 Ga
atom 6.4669025623536216 7.3426136554207071 0.0538647050075165 Ga
atom 6.3821284693942220 7.3995884797021088 10.4159115204969428 Ga
atom 0.0279888138196913 7.3316433144605186 10.4020129674516522 Ga
atom 15.9329514495472608 7.3992464977105454 5.3601559414097171 Ga
atom 1.6536889177823286 4.6402020259549364 0.0679542040246839 Ga
atom 1.6246764023126852 4.5426214579062378 10.4375630546646079 Ga
atom 1.6488358016709708 4.6254285304901384 5.1289297309527200 Ga
atom 3.1401330793431428 1.8668098199602892 0.0565037096946201 Ga
atom 3.3064195024320004 1.8556201995332595 10.3103290518957600 Ga
atom 3.2867431176066275 1.9205593708574511 5.2871259852405563 Ga
atom 0.1221274484698740 1.8429123904279341 0.0063004451128266 Ga
atom 15.9292926125391165 1.8627471388305161 10.3729929966818109 Ga
atom 0.0359996359685506 2.0808004153800197 5.2167850668282520 Ga
atom 1.6383089074985231 10.2727114819732073 5.2135458014162586 Ga
atom 3.1638815664150179 7.3900341517804504 0.0008304958949395 Ga
atom 3.1841301823745307 7.4438843483795409 10.3558806828047292 Ga
atom 3.2325854279302981 7.3420500791682777 5.2593218905210248 Ga
atom 4.7701930761604272 4.6010283098917144 0.0142443773256901 Ga
atom 4.7980789726387298 4.5800619645512555 10.4628475426029013 Ga
atom 4.8366621742791640 4.5517719919768052 5.1785766123177028 Ga
atom 6.3804407910964267 1.8013171857125962 15.5826673594005740 Ga
atom 6.2873977627880908 1.8744204805001510 10.5607761503673103 Ga
atom 6.5465744492098779 1.7941097155982140 5.1428570940116831 Ga
atom 15.9391037833009115 7.4160328452563729 15.6121750515758375 Ga
atom 14.5373401002342497 10.2115977803179270 5.1704971554307226 Ga
atom 8.0197047575601577 15.7195222981812979 0.0609056115966162 Ga
atom 7.9866573350767274 15.6914400638300098 10.4253581963967470 Ga
atom 8.0457886370103839 15.7716838361733203 5.1255086582391653 Ga
atom 9.5793705732983199 12.9568621346185857 15.5568604849004988 Ga
atom 9.5840974697733614 12.9351666027529131 10.3864856905114706 Ga
atom 9.6260737641492344 12.9194421657235825 5.2757925219724369 Ga
atom 11.2171121893919761 10.2572429345707050 15.5341190800565538 Ga
atom 11.2572398568095959 10.1580435914578509 10.3943749858212513 Ga
atom 11.1857018579870786 10.2408685773945329 5.2393532755008092 Ga
atom 12.8246952051884939 7.4204769869195282 15.6161132271597936 Ga
atom 12.8355126509236488 7.4286165593435562 10.2854706796913771 Ga
atom 14.3818113218401216 15.8112074371568685 15.5958893559120959 Ga
atom 14.4221819839797067 15.6216919392684002 10.4289719580604512 Ga
atom 14.4682823566209890 15.7390277682268671 5.2328778733233268 Ga
atom 11.2701095780912599 15.7813676508203002 0.0078997469096140 Ga
atom 11.2445663329312779 15.6620826699152360 10.4195256774828184 Ga
atom 11.1527834098840550 15.6210482425912520 5.2359343565067951 Ga
atom 12.7853589734752973 12.9571284347544946 15.5522787228928561 Ga
atom 12.7860092234619334 12.9483468287216272 10.4254220393019317 Ga
atom 12.7799272164343307 12.8875921428352402 5.1199887143923624 Ga
atom 14.4521799297813711 10.1740810989143391 15.5697533883821322 Ga
atom 14.4638062068413369 10.1853496837542838 10.3654058427185518 Ga
atom 7.9930259424140324 10.2282001831797160 10.3959677138986226 Ga
atom 7.9954232195298696 10.1227183873637312 5.2699785961441368 Ga
atom 9.6437688745215127 7.3705104110701063 15.5975210451005850 Ga
atom 9.6155689480917683 7.2929712569664531 10.4093655456664429 Ga
atom 9.5873815826495843 7.3637170485140322 5.1666229119069635 Ga
atom 11.1425582903498039 4.6240125708612938 15.5915809605536211 Ga
atom 11.1987098449991507 4.6341854612100288 10.3581755545628234 Ga
atom 11.2172115511849864 4.6244981937668728 5.3010307995592374 Ga
atom 12.8022070443452449 1.8414048097817328 0.1205281038457982 Ga
atom 12.7694399028583252 1.7999325957001406 10.5290858996160388 Ga
atom 12.8574098008955175 1.8297585922887967 5.1649911862747002 Ga
atom 12.7727766922715293 7.3940315111004162 5.2034945649399802 Ga
atom 14.4119537441304431 4.5981638391213364 15.5277160016355822 Ga
atom 14.3765473576853822 4.6681790136555250 10.4574669111941816 Ga
atom 14.3054038350562003 4.6212941637743485 5.2652138438158360 Ga
atom 4.8423009965209260 15.7404779605813001 0.0195540565634556 Ga
atom 4.8313197425511865 15.6670510273053605 10.4117951117159429 Ga
atom 8.0164437635151344 10.1621511799222706 15.6091639670109661 Ga
atom 6.3770335647575154 12.9074817757442748 5.2499194340146271 Ga
atom 6.3195358870055358 12.9663993589325202 10.3527283040318618 Ga
atom 6.3626638954831014 12.9663213485059376 15.5546127960720835 Ga
atom 4.9056595838139838 15.6772165963353114 5.1932380420518625 Ga
atom 3.1334135327017649 9.2642258984162069 9.5836562243716976 N
atom 3.1463017240244637 9.2616531450568704 14.8853272973244461 N
atom 1.5872533924174481 12.0928642663238062 4.5079402593371798 N
atom 1.5972654682501592 12.0725276668195054 9.8090967769537976 N
atom 1.5203775961368162 11.9349480892007946 14.9500525726252107 N
atom 0.1070794551576356 14.8336027198977742 4.5568675983695712 N
atom 3.2948233373412052 9.1887527176361772 4.5915842674029088 N
atom 4.7521360851406191 6.4780406807409543 15.0252557747293238 N
atom 4.7965495424879441 6.4402125014941651 9.8526647802345124 N
atom 4.8561470180490733 6.4397875476147401 4.6046120852100030 N
atom 6.3934041993933599 3.6735279278364006 15.1352483265171127 N
atom 6.2806034685657632 3.7433849585465082 9.6942862235296356 N
atom 8.0402265659681866 6.4714148937992375 15.0301184041276930 N
atom 8.0656749984510139 6.4118132862023636 9.8063267159767467 N
atom 8.0150709802738938 6.4532161478629977 4.5335098177663777 N
atom 9.5112299244968650 3.7045481064850074 14.9854282344905041 N
atom 9.6184252896699363 3.6549847996303240 9.8282442156265244 N
atom 9.6827283788813823 3.5927573131739798 4.5495046935049652 N
atom 11.1970200749216033 0.9960837393298091 15.0823042034052648 N
atom 11.1686572390990033 0.9034228338932710 9.8397163206929950 N
atom 11.3143987685810199 0.8700588365657643 4.6113325705225012 N
atom 15.9195637712267857 14.7645106654436091 14.9830725141298480 N
atom 0.0778033551713003 14.7993571836792874 9.8559180855362936 N
atom 3.1510318206526517 3.6520039269017004 9.7747316093101162 N
atom 3.2157545114707133 3.5972307350118458 4.5979092148435621 N
atom 4.7881097541744326 0.9179212888223289 15.0123094131513994 N
atom 4.8229100204285684 0.8814945324433003 9.7672782388504746 N
atom 4.8571601458326521 0.8362031547638435 4.6294518747743298 N
atom 0.0139013308776924 3.8161051807315207 14.9302833837658397 N
atom 15.9719689577320807 3.7794191385280489 9.7803493123746854 N
atom 0.0857139840595453 3.7067220058387211 4.4891678020094696 N
atom 1.6168004361272852 0.9392622887370032 15.0181869658978968 N
atom 1.5960085276628837 0.9779768089081212 9.7471680021188494 N
atom 1.6538028938934657 0.9400396343796696 4.5854944781384539 N
atom 6.3433350162701840 3.6105464471972128 4.6671483058708816 N
atom 8.0550992522997404 0.9708764869172370 15.0197021347034845 N
atom 7.9043447730461969 0.9296103464373263 9.7969911162769208 N
atom 8.0849865599678310 1.0277243390965698 4.5592560676285068 N
atom 15.9921544405212863 9.2693617755202702 14.9344111176777741 N
atom 0.0496396405477459 9.2380111819560309 9.7283385892316439 N
atom 15.9521233533544251 9.2352574512717922 4.6009454312524678 N
atom 1.5685052536795816 6.4316272595201083 14.9976140104800422 N
atom 1.6603628966010220 6.3873283202164171 9.7469340013012022 N
atom 1.5717750580661651 6.4606639662712668 4.6309474333541356 N
atom 3.2160683621200867 3.6442442288563388 14.9919811816959232 N
atom 11.1569013700811226 12.0179496917295001 4.5952903179655022 N
atom 12.9309785104573898 9.2744486509185755 14.9934210183453320 N
atom 12.8876129574501270 9.2066483341728080 9.7792900609991680 N
atom 12.7962745244199052 9.3116484537193642 4.4801459632222409 N
atom 14.4091514181793467 6.3942291731755612 14.9086779226783648 N
atom 14.3826055889473245 6.4968842776489177 9.7720662046331999 N
atom 14.3851732176019560 6.4576219574825968 4.6233721036004924 N
atom 6.3879979106422997 14.7632034219552093 14.9754788664130718 N
atom 6.4561567879476787 14.7468261729280705 9.6643400822509609 N
atom 6.4369056124645914 14.8362917414651090 4.5994896850460796 N
atom 8.0015171053229572 12.0017842353608692 14.9458516850149454 N
atom 7.9499561280584103 12.0952763957535154 9.7644176696941205 N
atom 12.7360687513745532 14.9703054939782305 14.9971343154621746 N
atom 12.7690401857772073 14.8167742290234070 9.7831245507963303 N
atom 12.8182357198111330 14.7430747014531107 4.6070491449245825 N
atom 14.4129079856126943 12.0151122807970214 14.9640239178667827 N
atom 14.3783298180183099 12.0853704954922669 9.7618035978540103 N
atom 14.4150356456509599 12.0638001728905717 4.5484340563318231 N
atom 9.5792259700387667 14.8118799600949558 14.9717662137291061 N
atom 9.5378906896473516 14.7019883122291297 9.8979195897912398 N
atom 9.5698294524975012 14.7078592367744232 4.5311013762234609 N
atom 11.1870432849018524 12.0325611866859958 15.0436623088638655 N
atom 11.2066769406836464 11.9640928059355822 9.8539547828351193 N
atom 14.3142078245492499 0.8710847232510063 9.7911320561486708 N
atom 14.4308215178798243 1.0111147519933747 4.6232534757732990 N
atom 3.1848439584533863 14.8035166674174867 15.0241241174133382 N
atom 3.3225254479780713 14.8282136182377826 9.7783288277472078 N
atom 3.1935884743612442 14.8162551253662524 4.5601178838659262 N
atom 4.7712347073176380 12.0025459655575375 14.8620086914632399 N
atom 4.7717679714649037 11.9939235279190211 9.7182700937635609 N
atom 4.7565201788387741 12.0560461910336159 4.4653251623355512 N
atom 6.3693407131111606 9.2331840465991775 14.9813054852286189 N
atom 6.3221819543099036 9.2175466810119424 9.8235200732490853 N
atom 6.4010481900267173 9.1833386662795125 4.5272031472034362 N
atom 7.9354152067488348 11.9930823155133250 4.5618129815454838 N
atom 9.6808560832892763 9.2309811555300101 14.9376397766508244 N
atom 9.5947941692765326 9.1946829896675091 9.8576514165377009 N
atom 9.5840019608842049 9.2617428024557054 4.5418048063572449 N
atom 11.1898860391324906 6.5319994014053133 14.9209360307795276 N
atom 11.1796265153413970 6.4728931657737050 9.7188120583020048 N
atom 11.2163518053616293 6.4189715017199793 4.5230442987963917 N
atom 12.8115297374954213 3.6327110703685017 14.9739428708186146 N
atom 12.8420465785464213 3.7607084516446050 9.8188595730390205 N
atom 12.8279200493773935 3.6610707550466741 4.6700500695810927 N
atom 14.4755148270054441 0.9419896084286590 15.0182509539450315 N
atom 6.5360449693860971 7.4589600903065891 1.9147640579978249 N
atom 8.0556563832388051 4.5796666147988381 12.3959042412365648 N
atom 8.0013180295949535 4.5390220062940569 7.1884599847395476 N
atom 7.9232436369555002 4.5425820063383853 2.0567053588034807 N
atom 9.5975718286954095 1.7793159045833149 12.4244003411731718 N
atom 9.6271112596734536 1.7203359599413939 7.1832703727915437 N
atom 9.5798515285214521 1.8561488837555349 1.9975689243340318 N
atom 15.9633150566893782 12.9700867656445897 12.4552663250529978 N
atom 15.9842715283095096 12.8600404740182288 7.1914097615981607 N
atom 15.9965310554762112 12.8763305587333416 1.9438710399363759 N
atom 1.5742513102072169 10.1959999830886723 12.2807651151435664 N
atom 1.6971067277850120 10.2109122085967208 7.1409671321544295 N
atom 1.6751369671275640 15.8113931379205734 12.3516241694331299 N
atom 1.6269122452547053 15.7427794090885325 7.2309180087857472 N
atom 1.6459684210032917 15.7433237256136014 1.9835160680876776 N
atom 3.2169950501413234 12.9539369505295863 12.3088893054328139 N
atom 3.1310163255853825 12.9773149538324581 7.1442236367336314 N
atom 3.1770699075860129 12.8792199046106539 1.8557636536993549 N
atom 4.9029967018438283 10.1346397603436831 12.3616740047457103 N
atom 4.7455144628751018 10.1476905103135344 7.1162578182643079 N
atom 4.8440767510395935 10.1047297791198130 2.0497061849313689 N
atom 6.3891789292805381 7.3254815140407876 12.3232068803525401 N
atom 6.4610220303085812 7.4002530525601014 7.1664226238746176 N
atom 16.0049356085089158 7.3318523699296527 7.2471358972538811 N
atom 15.9786480695589184 7.3985730924879061 2.0040299705949809 N
atom 1.6305985497641138 4.6958997761312693 12.3741685370774572 N
atom 1.6795576707401272 4.6161611744999735 7.2311933201475842 N
atom 1.5057047182788434 4.6418820942956884 2.0460255758287156 N
atom 3.2590791882466550 1.9160747266058116 12.3390448072610912 N
atom 3.2197880310940632 1.7851263796129739 7.1962292057447810 N
atom 3.1381156043314231 1.8601655752554305 2.0287831891827190 N
atom 15.8636339393626571 1.9125230157306896 12.3733913985913766 N
atom 16.0090780128062455 1.8658777643816014 7.2199493044816094 N
atom 0.0033025808090479 1.9198255756383986 1.9535387880272572 N
atom 1.5952628903212485 10.0867169771052918 1.9718514998865535 N
atom 3.1572945173878288 7.4803298861856691 12.3508729045126238 N
atom 3.3075043470782748 7.4253440810335141 7.1158670258221628 N
atom 3.1457172340230004 7.3914350708130190 1.9675892911640840 N
atom 4.8456130932078114 4.5693884461803949 12.4303032921793708 N
atom 4.8357354247394948 4.6704466085516554 7.1741126842567731 N
atom 4.8381398235056174 4.6364502675367900 2.0407574254541943 N
atom 6.3195320894708029 1.9328635000267365 12.4998410155906985 N
atom 6.4632427711932330 1.7639173814525166 7.1105032045319136 N
atom 6.3555123520289412 1.7661474054051371 1.9497684984215844 N
atom 0.0436441210749912 7.4197671232097822 12.3535706232962177 N
atom 14.4416989088467158 10.1351529972012351 1.8482922049300181 N
atom 7.9764958598794227 15.6781825322250370 12.3439148359793851 N
atom 8.0105641175983688 15.7224208929895894 7.1200679979314279 N
atom 8.0937989344725967 15.7731243826108987 1.8982589332223916 N
atom 9.6684127589762561 12.9849142055524904 12.4013944183038660 N
atom 9.5057651340310585 12.8452613960186000 7.2668827452453586 N
atom 9.5259212022700961 13.0643582198811643 1.9787873937139970 N
atom 11.1915308911475346 10.1297029994147376 12.3825004410415271 N
atom 11.2651842985357327 10.1480934829099496 7.2259151444913341 N
atom 11.2737743679100451 10.2504750840022076 1.8498826518047606 N
atom 12.7916870656000583 7.3397695663767486 12.2201451514227184 N
atom 12.8322741867109560 7.3599160828663202 7.1997006720491754 N
atom 14.3938764839421989 15.7348193446737383 12.3698723294694073 N
atom 14.3595397276769958 15.7540916694242021 7.1759512178468210 N
atom 14.4497149765330057 15.7343024466262857 2.0182586536542781 N
atom 11.2108057136670300 15.7047752547193387 12.4631956886199227 N
atom 11.1188524892524558 15.6185185075342883 7.1312551722556066 N
atom 11.2586303710901934 15.7148728018617092 1.9420445349766156 N
atom 12.8524123152747318 12.8199846985136308 12.3990789748669137 N
atom 12.6299284121092192 12.9156143916571722 7.2250724646612703 N
atom 12.8882055287833666 12.9430608462534398 1.9969151968855130 N
atom 14.4023626842554453 10.2361768903763775 12.3879121780228409 N
atom 14.4317002851693346 10.1497151498288982 7.0765561790731093 N
atom 8.0749584160296912 10.0639406832331897 7.1731344362006357 N
atom 7.9904895606836730 10.1919538146099882 1.9522919090516779 N
atom 9.5579349500158095 7.2911801361185153 12.3458823332864664 N
atom 9.6212061723112132 7.3807696199264035 7.0592540427049535 N
atom 9.6100613142951925 7.2983424664936507 1.9460259725715507 N
atom 11.2004041969278916 4.6029948915080512 12.4229789529720556 N
atom 11.2712513060981134 4.5825971838678754 7.2074516765218117 N
atom 11.1913963149279727 4.6903136147638174 1.9015622485429788 N
atom 12.8073838198908820 1.9260930796045841 12.4530756841591881 N
atom 12.8763100356834173 1.8301541367059564 7.1416365229618037 N
atom 12.7626648170202159 1.8944882752865904 2.0801572151222252 N
atom 12.8606121511013889 7.3874566834494786 1.9046861209095580 N
atom 14.3582427291633117 4.6975417410876483 12.3713167785911970 N
atom 14.4412073633793714 4.6686146373527171 7.2224947218538746 N
atom 14.3167547102824564 4.6353875418001103 2.0214354022569743 N
atom 4.8723177090524370 15.6810370935867116 12.4129333525733401 N
atom 4.8556014577024884 15.5724502170428085 7.1621342909215713 N
atom 4.7833633286411708 15.5846485023855781 1.9438177617785841 N
atom 6.4618268038377522 12.9525179313526753 12.2492864066579497 N
atom 6.4251477121642688 12.7225369440521323 7.2386590961361676 N
atom 6.4126510803965147 12.9824172406976412 2.0192271831854205 N
atom 7.9671814468179036 10.2183921789334260 12.3744871364893925 N
