#===============================================================================
# Created using the Atomic Simulation Environment (ASE)

# Thu May 11 08:59:16 2023

#=======================================================
lattice_vector 15.6273739999999997 0.0000000000000000 0.0000000000000000 
lattice_vector 0.0000000000000000 16.2404434541285205 0.0000000000000000 
lattice_vector 0.0000000000000000 0.0000000000000000 15.2445761999999903 
atom 0.0193613061855062 14.5849732836486545 2.6838439945894668 Ga
atom 1.7507803391895944 11.7969251161752879 12.7065262598541491 Ga
atom 1.3787613410504913 11.7538281906768987 7.5306371462176314 Ga
atom 1.5587837870587113 11.7388648296449833 2.5131813206533926 Ga
atom 3.1449488004038075 8.9338852997807372 12.5636594514033195 Ga
atom 3.1153207008628794 9.0085670993751403 7.4891116362736003 Ga
atom 3.2494254995019434 9.1076154973097836 2.4434123905085854 Ga
atom 4.6250765599462538 6.2298282289638962 12.7241206215084404 Ga
atom 4.6370520374739703 6.3146895902895563 7.6424315143621921 Ga
atom 4.7397978064350497 6.1759469759569932 2.4933592669975013 Ga
atom 6.3051289022742365 3.7079060806857669 12.6125424268311566 Ga
atom 6.2703754406424048 3.6461663921529297 7.4935420539101063 Ga
atom 7.7483557919464232 6.3087135424686718 12.4955388866107775 Ga
atom 7.7608046569139004 6.3650430021389823 7.6525566394787328 Ga
atom 7.8515271811575298 6.2466264925812007 2.5449135242509251 Ga
atom 9.2752072259594236 3.7090748554051181 12.5681231505750919 Ga
atom 9.3826204737236445 3.7853564412321448 7.5494865921221610 Ga
atom 9.2564633622482813 3.5144872209026023 2.6373935171358753 Ga
atom 10.7987465414363299 1.0170432957703552 12.7356981593163159 Ga
atom 10.8180515924789216 1.0664621359582165 7.5839421094728197 Ga
atom 10.9860294144844026 0.7529415346444153 2.5174029599451933 Ga
atom 0.0745197222274298 14.3110836819879452 12.9503155259575298 Ga
atom 0.1471807783893160 14.4109625557391237 7.6254959719664352 Ga
atom 3.0088403682597420 3.6409834797531446 7.6443148511442534 Ga
atom 3.0000114559318676 3.5090426685548390 2.5271677071000473 Ga
atom 4.6749633168223896 0.8473683275455248 12.7282513705034575 Ga
atom 4.7155766138995530 1.0085115874318247 7.6683606245439542 Ga
atom 4.6657622864329440 0.8059838194389330 2.4997235875652577 Ga
atom 15.6175052263706338 3.7845632193686876 12.5375123153553361 Ga
atom 0.0158758173190935 3.5810402239856729 7.6794179444193320 Ga
atom 0.0556510513938166 3.4189217966557139 2.6003132455783482 Ga
atom 1.5344459846769543 0.8844019445607851 12.7775712320277481 Ga
atom 1.7762289447593622 1.0178747569941482 7.7573273850302407 Ga
atom 1.5472265092681257 0.9169830125420224 2.6837733088681301 Ga
atom 6.0930834089081376 3.6032123566883465 2.5694441590444153 Ga
atom 7.8111888037126471 0.9471335814539242 12.6062097616760358 Ga
atom 7.7147705991292481 0.9774278346648286 7.4488099393486342 Ga
atom 7.8702220393769178 0.9290886229438825 2.6344663310188965 Ga
atom 0.1938918337681800 9.1140725621992242 12.6317413358146666 Ga
atom 15.6115088441988092 9.0021438353193606 7.5237173987304589 Ga
atom 0.0336072669045762 9.0519701378110184 2.3722706417073147 Ga
atom 1.5755833110739104 6.2391675451804973 12.6235114314179189 Ga
atom 1.4862805977203977 6.3550669840182312 7.5735496754663272 Ga
atom 1.5307565217969101 6.2930420628009536 2.6678115740804236 Ga
atom 2.9486706313479685 3.6346862801193653 12.5771727979047228 Ga
atom 11.0239549910833521 11.5300011113181942 2.5034184561472945 Ga
atom 12.5326070066520732 9.0356528595479322 12.8364865541460116 Ga
atom 12.5468522568025751 9.0055440758524501 7.7195983565799393 Ga
atom 12.5055822324102035 8.8673313842062633 2.5601733107333842 Ga
atom 14.0879290961778025 6.3664413068196239 12.6544543442802855 Ga
atom 14.0854709606671378 6.4089918313913872 7.6327756491942651 Ga
atom 14.0548142134782168 6.2603987033205630 2.4263314830854203 Ga
atom 6.1500833383114495 14.2858466480215931 12.6168768597573084 Ga
atom 6.4152817911170503 14.3561616833788150 7.5865081518259716 Ga
atom 6.3461737143920782 14.4258891342494540 2.6585547040599016 Ga
atom 7.7776500366936192 11.6638812454405603 12.7144529018360952 Ga
atom 7.9192221257005597 11.7767322212020353 7.7558656124461125 Ga
atom 12.5596847441216184 14.4282699745573861 12.7683757413698427 Ga
atom 12.4907609254990835 14.5877138445017636 7.6173532586131882 Ga
atom 12.2955047601131788 14.3851644167874557 2.5754028463870857 Ga
atom 14.0259473529347964 11.6911038107387064 12.6692844372012505 Ga
atom 13.9043349592490593 11.7698617949920337 7.7138245545523514 Ga
atom 13.9698577979905298 11.7397033430944173 2.6173630364216875 Ga
atom 9.3265869345335854 14.3333315995717978 12.8202954802306408 Ga
atom 9.4846621001134039 14.4621504476627898 7.7279718914772833 Ga
atom 9.2468873934005273 14.2556414726725063 2.5512397884040894 Ga
atom 11.0970451145704825 11.6619790067114710 12.6706627095553035 Ga
atom 10.9966937767911528 11.6546108665337691 7.6304060487815937 Ga
atom 14.0231317371179394 0.8731568907757404 7.8181216324880314 Ga
atom 13.9929933468349113 0.8121739553535521 2.5608153095309785 Ga
atom 3.1660462795542292 14.5058693640700191 12.5524631100372996 Ga
atom 3.1805769652831128 14.5248790384433004 7.5303015526168817 Ga
atom 3.1231085530596450 14.2595201098980890 2.7954065509665935 Ga
atom 4.7194761192541694 11.6830197391558563 12.8251872502796882 Ga
atom 4.5876741133665737 11.6655084379960989 7.4671537740218739 Ga
atom 4.6683831336899066 11.6490154242229504 2.5797209511661290 Ga
atom 6.2286951366312282 9.0901855555354878 12.8429215480255614 Ga
atom 6.2544450232365092 9.0227841617653546 7.7237344418635470 Ga
atom 6.2297878031216962 8.9998326034327132 2.6069363286738825 Ga
atom 7.7799105609961527 11.6108986287268117 2.6176787824606356 Ga
atom 9.4547164701292488 9.0345788501013278 12.6480698272464345 Ga
atom 9.3622113356684729 8.8530156605718382 7.6987979777840208 Ga
atom 9.3595536570985445 8.8533673212301593 2.7674528006644787 Ga
atom 10.8767378972789750 6.4111475223408902 12.5889501231337171 Ga
atom 10.9177186158503350 6.2739815139388320 7.7201855086986084 Ga
atom 10.8024118037254606 6.2992296508829719 2.6962666937114106 Ga
atom 12.3872532761696252 3.7710418588580183 12.5737587641107424 Ga
atom 12.4802234880204157 3.7195778917148212 7.6300068813713935 Ga
atom 12.2791638209788854 3.6203562111828451 2.4956135869899971 Ga
atom 13.8741737287069231 0.8920761899788169 12.7856876056837869 Ga
atom 6.2819591821028515 7.2049102522165080 5.1024827675995059 Ga
atom 7.8277096873351777 4.4492672852961173 0.0371007894899627 Ga
atom 7.9839993710836437 4.5232783211251002 10.0552948758767133 Ga
atom 7.9034539671877937 4.4617789450347978 4.9159336113662766 Ga
atom 9.4988643919371984 1.8579994162920488 0.0267848230226924 Ga
atom 9.2914456838178321 1.6734831588943422 10.1043730364481750 Ga
atom 9.3347207866476758 1.6262085384828191 5.0640247771108617 Ga
atom 0.1541844952793923 12.7102167604776799 0.1878359477880296 Ga
atom 15.5584084080012364 12.8623269131100617 10.1324033905034590 Ga
atom 15.4994659580122320 12.7029548625596433 5.0892833165474860 Ga
atom 1.5707998261474712 9.9647213967612096 15.2112195669323178 Ga
atom 1.5382346668323446 9.9860987490255315 10.0172114180035443 Ga
atom 1.6949264080343147 15.3620277879112699 0.1593693375309014 Ga
atom 1.6309343136111170 15.2368351604138930 10.2034315772975450 Ga
atom 1.5610542373744463 15.3694708977547823 5.0223944518311292 Ga
atom 3.2459432319752062 12.6757733111669655 0.0021965003827878 Ga
atom 3.2429470037320840 12.6061733807226446 10.0387586943053453 Ga
atom 3.0235219456702400 12.6170684649198090 5.1826752131469114 Ga
atom 4.5413073390300109 9.7874447051205014 15.1735684949588450 Ga
atom 4.5135902025046768 10.0447271453455098 10.1057774325409593 Ga
atom 4.8468548112222987 9.9315550111372453 5.0860091153466120 Ga
atom 6.3558996134563266 7.2312709877011514 15.1617110945328601 Ga
atom 6.0810000156141228 7.3605935561405538 10.2444993710586481 Ga
atom 15.5617386701562381 7.4549784630375386 10.2986133975553518 Ga
atom 15.5582678153024521 7.2836327713065989 5.0767734437264052 Ga
atom 1.5353296475331644 4.4329276086980336 0.0237233537561987 Ga
atom 1.5016581899003123 4.6099173934854516 10.1278342839873510 Ga
atom 1.3457307911516789 4.4902280921580244 5.1610277734468708 Ga
atom 3.0711779544253548 1.8067418062864247 15.1568835869750735 Ga
atom 3.0357664821006982 1.7662421879958290 10.2884278706518693 Ga
atom 3.1191589509260877 1.8789762149091218 5.0843531939407276 Ga
atom 15.5969475375861872 1.8546291877915182 15.2043604424525363 Ga
atom 15.5657978988211383 1.8349643257180817 10.2012480699393127 Ga
atom 15.6102644355980047 1.8457630581343663 5.1794397113582553 Ga
atom 1.6120809082738734 10.0349141330266818 5.0989049825452311 Ga
atom 3.1343429774166545 7.2189186511329178 15.1514566334688379 Ga
atom 3.0713999931943494 7.2832782424820239 9.9766425263468754 Ga
atom 3.1901070968822847 7.1019311267066634 4.8905311150847552 Ga
atom 4.7139697041928033 4.5577304496214488 15.0923261574417733 Ga
atom 4.6514119211123717 4.4948605698577708 10.1052266371099311 Ga
atom 4.5742860671856498 4.5273978125313752 5.0723805604539791 Ga
atom 6.2879645427425279 1.7385422588119694 0.0381309703947131 Ga
atom 6.2146251463884097 1.6522594015724310 10.1738104482368286 Ga
atom 6.1066039557687208 1.7881185687176502 5.0009593608329839 Ga
atom 0.2164245554117282 7.1262504909435949 15.0051341355948740 Ga
atom 14.2221560671532981 9.9328054273421333 5.1037018703867671 Ga
atom 7.8459021177711694 15.2644097712753659 15.0697792864602036 Ga
atom 7.9180830411031122 15.3507526667623129 10.1363382060614118 Ga
atom 7.8193315046713048 15.2226007438283144 5.2283952744288360 Ga
atom 9.5173142905342107 12.5668198337351242 15.1856004717480992 Ga
atom 9.4659391984430705 12.7219905447618586 10.1517748027758419 Ga
atom 9.4828280607947608 12.7556084961288132 5.0410004518241553 Ga
atom 10.8785804259313181 9.9805519623862597 15.1906587228437893 Ga
atom 10.9591230659769927 9.9826613348987028 10.2075094083011688 Ga
atom 11.1070533826589841 9.9826689217058249 5.0924574541533119 Ga
atom 12.4867665824153597 7.2502819007291546 0.0827294646589834 Ga
atom 12.5558774206206163 7.1375860905829791 10.0947271479914615 Ga
atom 14.1402668875519613 15.4040694531808455 0.0908540519705698 Ga
atom 14.0912641670183056 15.2432487749820176 10.2739865554595067 Ga
atom 13.9294165813971151 15.4383413374906731 5.0771157728862768 Ga
atom 10.9268926465283318 15.2116651577405815 15.2233658887546746 Ga
atom 11.0787807261750224 15.4352054120408262 10.1720264001478853 Ga
atom 11.0099209528739870 15.3249696987445692 4.9835411463995012 Ga
atom 12.6394111347006426 12.5483191099934679 15.1176407127684485 Ga
atom 12.4111623734764827 12.8080676153059887 10.1667459193588670 Ga
atom 12.5710186713259571 12.6978440735473121 5.1350089443592744 Ga
atom 14.2004836240099799 9.8772773903000246 15.1591571638939691 Ga
atom 13.9637468627808374 10.0306383495431017 10.0894904779881287 Ga
atom 7.7085886940761323 9.9290554055256948 10.3751948306653059 Ga
atom 8.0283252053151948 10.0570079094011575 5.0815309491067833 Ga
atom 9.4261550672361327 7.1286321866480282 0.0436418599801648 Ga
atom 9.4507736715195456 7.3116936642198187 10.0762309145907683 Ga
atom 9.2496814773942315 7.2446372215807324 5.1191434408623326 Ga
atom 10.9424987797926843 4.5976851606583038 15.2264452309124643 Ga
atom 10.8951841823940843 4.3882529201580063 10.2438427333501902 Ga
atom 10.8329962556977399 4.5666933499013300 5.0501159112720746 Ga
atom 12.5997795642574690 1.7214388864171113 15.2149514100424117 Ga
atom 12.3949802827548758 1.8396043814419576 10.1978917575935366 Ga
atom 12.4141002364298814 1.8249396418165933 5.1416742339880361 Ga
atom 12.5562463742360002 7.2452368401730673 5.0725722125169108 Ga
atom 14.0280184314833836 4.4718227293221577 0.0632639006807341 Ga
atom 14.1161180217044482 4.4173006791002187 9.9934029264773674 Ga
atom 14.0364736725385768 4.4489157006190361 4.9837814233328359 Ga
atom 4.7215722047594495 15.2555578909997038 15.2079240285966435 Ga
atom 4.8515358888969091 15.3908709294550636 10.0358443612629866 Ga
atom 7.8337885150840503 9.8836282081236035 15.1524931575496673 Ga
atom 6.2120253643460561 12.6522528960851055 5.2463697039360797 Ga
atom 6.3449046995845224 12.6139169602724035 10.1593741476532884 Ga
atom 6.4515973934938664 12.6230565733562052 0.0555501122354952 Ga
atom 4.6830799930983442 15.3672025089016184 5.2395807115985953 Ga
atom 3.0808263455374867 9.1983779032095043 9.4872711271106382 N
atom 3.0125355380026697 8.8509844380878384 14.5838533122900973 N
atom 1.4768567388599589 11.7658512442771190 4.5785779341997328 N
atom 1.5564936152918771 11.8241666059028692 9.5590544801577657 N
atom 1.5912466724405439 11.7607628935857047 14.5625014708347269 N
atom 15.5340836081578573 14.5481774041875607 4.5679527671061235 N
atom 3.1810493461601208 9.1205600073099422 4.3606027832510419 N
atom 4.6419750000088600 6.3594311771393750 14.5527665294417030 N
atom 4.5855605103989161 6.3566203700848982 9.6235229429599407 N
atom 4.7770370308276080 6.2920251005988019 4.3344848505237801 N
atom 6.2969397852664120 3.6060980715346562 14.5287611473616174 N
atom 6.2270571922733513 3.7229389420716497 9.4229310707003808 N
atom 7.8349396329979513 6.2301752102299517 14.4430682225760592 N
atom 7.7567480125800303 6.4665001505759259 9.5196017531508677 N
atom 7.7697681037269568 6.3949634427252322 4.3785075608193775 N
atom 9.5087817223867201 3.6156010144792519 14.5397896208962258 N
atom 9.5359546164095867 3.5855685340189782 9.4679969466154628 N
atom 9.3042802075188842 3.5312989777401786 4.3966139959384343 N
atom 10.9838014370238106 0.7007839682522355 14.5675660812681862 N
atom 10.8908958089394421 0.9120422960617572 9.5430205895947271 N
atom 10.8645039333513349 0.8608289938681539 4.5163137223791487 N
atom 0.0822169452259809 14.5831874497198708 14.8332784024024580 N
atom 0.0422386859533262 14.4168848537276109 9.4997074095698117 N
atom 3.1154510608867199 3.5444651242130556 9.6109266134351312 N
atom 2.9684736346640688 3.6650372547480639 4.4714443122517915 N
atom 4.6615893412052154 0.8253223772232535 14.6117933716640991 N
atom 4.5833021040987596 0.8728574253135534 9.4614206997832344 N
atom 4.6297003591992203 0.8663650970035622 4.4131859827922781 N
atom 15.5679140030348613 3.7456604380495939 14.5176637809495457 N
atom 0.0779239837651431 3.7261890245302602 9.5377919764912331 N
atom 15.4750630754764611 3.4466947379131869 4.3566951141738191 N
atom 1.5073567181275567 0.8472635426894503 14.6858978029633693 N
atom 1.6209200809729305 0.9603371522859797 9.6462646274764854 N
atom 1.5740585769860107 1.0303889704447939 4.5522655569975576 N
atom 6.2858297941513257 3.6779926071774889 4.3852806443200540 N
atom 7.8270161204949762 0.9178417371993007 14.5691938250759687 N
atom 7.8777804103479889 0.9040573477539912 9.6005561355081728 N
atom 7.7306236379242401 0.8845438559594354 4.4743485720751659 N
atom 0.1400034012153428 8.9376100633218716 14.6003797590685647 N
atom 15.5774238684623718 9.0963326559961146 9.3976273575553346 N
atom 0.1315005000177710 9.0765974747377349 4.3542984115370995 N
atom 1.6233041817933329 6.1380970377701720 14.5784114360798149 N
atom 1.4182906452840445 6.4652436650883294 9.5306721182828351 N
atom 1.5627418945826288 6.2938778019803721 4.4456454925638127 N
atom 3.0433284638585762 3.6285854994999478 14.5263159140286255 N
atom 11.0820319472554765 11.6983558420588789 4.5338568863435329 N
atom 12.5391744744108973 9.0939037488777359 14.6143468829071672 N
atom 12.4043604865515160 8.9915237110572050 9.6545029970010230 N
atom 12.7495090300334493 8.9688205087025903 4.5282814681881396 N
atom 14.0871340074891851 6.2765584513579986 14.7084913459296374 N
atom 14.1277204856107961 6.3056448823665363 9.6802925103360753 N
atom 13.9858945514160222 6.2718906765314717 4.4898722993226485 N
atom 6.3578323351700048 14.2496108466119065 14.5385503161287559 N
atom 6.3736249431607135 14.4486916123329046 9.4629159908652341 N
atom 6.2349759466805414 14.4382245059945866 4.5702226622997983 N
atom 7.8396751187180040 11.6948036941332187 14.7498798803580566 N
atom 7.9420158268355774 11.7544667795599587 9.6051942558519059 N
atom 12.5298931287486486 14.3513357255530565 14.7665731811337988 N
atom 12.5979979288852881 14.4411886415017126 9.4323753566008790 N
atom 12.5115875416145670 14.5039640091493229 4.3688342486058040 N
atom 14.1780636565554055 11.7683820433949737 14.5336732407387679 N
atom 14.0055749115690116 11.8653302971436876 9.5616614460238747 N
atom 14.1696415723546671 11.7459156909256670 4.4593425863421965 N
atom 9.4235204272595041 14.3917713907618285 14.5117612424945719 N
atom 9.3297986551304355 14.3541081068579022 9.5413790400380574 N
atom 9.3841352000813973 14.3410344309173787 4.4220551779286712 N
atom 11.1427758557788348 11.7122216027180510 14.6577597008665492 N
atom 10.9878750573510846 11.7135060419333357 9.4999064465958742 N
atom 14.0068447039248429 0.8502879865386376 9.6200384514627828 N
atom 13.9954213314421416 1.0039968946028828 4.5793362422951391 N
atom 3.1490430736975958 14.4189793262904349 14.5146557527872009 N
atom 3.0944770182208639 14.4197596169578777 9.5209760679876343 N
atom 3.1359051496364216 14.4077973024976220 4.6028043898392745 N
atom 4.8183567667954028 11.6845477633128905 14.8839149468807008 N
atom 4.7408739012468155 11.8115254063706008 9.5056310048523809 N
atom 4.6357984052191590 11.7043811912857976 4.4141504140520826 N
atom 6.2953181365532727 9.0810834358282015 14.5769753291817032 N
atom 6.2277251913363516 9.0008483640195589 9.7174567626747930 N
atom 6.4233676486148275 9.0389119562062152 4.4167616977709159 N
atom 7.8855838782361998 11.9160915790233126 4.5422118555964026 N
atom 9.3019749855285383 9.0766310280265969 14.5241847109311575 N
atom 9.3581677078694820 9.1013015006140883 9.4881889320440091 N
atom 9.5178390852104258 9.1793984744531336 4.6648572806264017 N
atom 10.9561226486632783 6.3150819237582327 14.4625523112664869 N
atom 10.9181145660926369 6.2189710968173806 9.5883729446776655 N
atom 10.9179455645564634 6.3999997072452075 4.5427079257250620 N
atom 12.4752819704969404 3.5295150913804783 14.6452192324703763 N
atom 12.3992503471017219 3.6528156543493955 9.5743869141261619 N
atom 12.3780518385655061 3.4688798862316488 4.4892353358663506 N
atom 14.0478493639316557 0.7815591359156447 14.5821716131833359 N
atom 6.3216475674036552 7.2683143009706992 1.8236764868417727 N
atom 7.7654762208127774 4.6083399361902995 11.9470806659599482 N
atom 7.8843531676531757 4.5214501992899381 6.8614107536550151 N
atom 7.7119262134168745 4.5307569439380302 1.9461332279929213 N
atom 9.1947133921627362 1.8806059544818281 12.1586266724292287 N
atom 9.3846845117695636 1.9093012086137784 6.9260389636649071 N
atom 9.4462102103480259 1.8171415917113263 1.8807293868799284 N
atom 15.5244819141538386 12.5826169690382663 12.1980000507948763 N
atom 15.4529431726741766 12.5348825412764029 7.0498344745961745 N
atom 15.6160955206349961 12.6568594278108950 2.0763970101981202 N
atom 1.6917299766690019 10.0008840181597289 11.9887580974405239 N
atom 1.4481681536993403 9.9085250656658506 7.0722273237489812 N
atom 1.6682375826346008 15.3131964478103590 12.1382700065580114 N
atom 1.5817512081902900 15.4429341615721540 6.9486233823173933 N
atom 1.6903158767994317 15.4547357318309579 1.9721742433552871 N
atom 3.2484552017399277 12.7108323264858480 11.9488888611545292 N
atom 2.9890089297989757 12.5746778975697655 7.0547611339762408 N
atom 3.1228865467344851 12.5874578622069304 1.9664119097754216 N
atom 4.5628617365137929 9.9117717529158664 12.0970080507167932 N
atom 4.7283040452512699 9.9611190209610996 7.0498009599987794 N
atom 4.7880964152028458 9.9125188550117702 1.8231365684651017 N
atom 6.2137299392192507 7.3384343533039642 12.1019905306073916 N
atom 6.2873066649850538 7.2992123264900073 6.9520663037948234 N
atom 0.0093562555889095 7.2592596416341006 6.9426661246892838 N
atom 15.5631880722085096 7.3211571023201421 1.8252529290329507 N
atom 1.6050636232798143 4.4696461479706278 12.0176419837851807 N
atom 1.4627443083222549 4.4458114409126743 6.9867791277797977 N
atom 1.4362364523939855 4.4683921930517148 1.8268028455279983 N
atom 3.0660175026515311 1.6566183417260374 12.1421360763425632 N
atom 3.2282850103761884 1.9722935174536571 7.0857007808685015 N
atom 3.1314212907600187 1.7467789394510380 1.8500477271878872 N
atom 0.0179880117857516 1.8524630478983919 12.0829916347377466 N
atom 0.0611492117494676 1.9248049180516980 7.1346193464519301 N
atom 0.0682583244077103 1.6838240652800960 1.8727660744217789 N
atom 1.5926930631206615 9.8799377557019064 1.8120548889742369 N
atom 3.1038513699508417 7.1202800887151492 12.0501512998608877 N
atom 3.0605327112214806 7.2046572063583021 6.9637835026897497 N
atom 3.1023077244444286 7.2765825008361933 1.9742584397942686 N
atom 4.5475780117204216 4.5133553004566282 12.0624960806404662 N
atom 4.6550985523252182 4.4138200385969082 7.0568841882614253 N
atom 4.6380413765256341 4.4736182692465709 1.9181640241523226 N
atom 6.2709409747427785 1.8506211509790194 12.0597275486450908 N
atom 6.2145517255029530 1.8100389590433330 6.9474778476569110 N
atom 6.1215796800434585 1.7063009164147680 2.0167764142608640 N
atom 0.1231448584936585 7.2047589348944658 12.2119029375904464 N
atom 14.1541067508478697 9.9227759482709086 1.8282787009357606 N
atom 7.8447325303140047 15.3320468715189762 12.0230107691242303 N
atom 7.9132919108422799 15.4270525961193901 7.1177470432616605 N
atom 7.8896000797187771 15.3655847653084336 1.7890985412254554 N
atom 9.4997895891909874 12.4866657426841918 12.2556977780987761 N
atom 9.4309578424164489 12.8241061301878201 6.9886168669000952 N
atom 9.3092972407622998 12.4754205560367293 1.8829901879547515 N
atom 11.0021919882655066 9.9105523730274925 12.0701429725146117 N
atom 11.0130884148231587 9.8334899723839175 7.0473410452083778 N
atom 10.9774238227869727 9.9197105009395319 1.9168926253834742 N
atom 12.5493136115388442 7.1947709733393364 12.1025304763566126 N
atom 12.5961810347671612 7.0842608197262544 7.0751170164099371 N
atom 14.1737416623463055 15.2888248793286046 12.2305629001890228 N
atom 14.0621303414739831 15.4129665124304385 7.1442361500748666 N
atom 13.8908443379267368 15.2232654465798500 1.9450246916618521 N
atom 10.9552426912720087 15.2859933226881139 12.0645107398483518 N
atom 10.9341151181907108 15.3402647528017866 7.0399568735501887 N
atom 10.8243542857649260 15.2369094315270743 2.0086466794251274 N
atom 12.4490511712562224 12.6834512508420314 12.0904602882065859 N
atom 12.4446409047263238 12.7493600596456744 7.0195708650302917 N
atom 12.5303519124696034 12.6147779594452008 1.8902739825692814 N
atom 14.1390724193355588 9.8819669271023471 11.9407155407244634 N
atom 14.0689910486743521 9.9798162043190395 7.0221876910873720 N
atom 7.8121280274939675 9.8104117540969220 7.0604139729042972 N
atom 7.8414968277793013 9.7725782302451805 1.9253076892209884 N
atom 9.3505443932587280 7.2485561881528913 12.0104575545601460 N
atom 9.3881580668266711 6.9869342464498843 6.9605732502514845 N
atom 9.3815461418221879 7.2236159194283101 1.9590589916125614 N
atom 10.8794268940685761 4.6660196194616264 11.9461788178293791 N
atom 10.8730359386156596 4.4863038143870808 6.8961328469896035 N
atom 10.7546782600538204 4.5524455091388027 1.9384752809037993 N
atom 12.2620906830416345 1.9784612108539132 12.1172738289796094 N
atom 12.3961240055372368 1.9564587729616110 7.1826557090885927 N
atom 12.4501579327099314 1.7135470148095935 1.8303303682222722 N
atom 12.2663694598076329 7.1767388496040088 1.9090795036562569 N
atom 13.9976337644919600 4.6282347137025086 11.9694100194892279 N
atom 14.1363628408385491 4.4782166699833814 6.9652993231937179 N
atom 13.9624783504904020 4.4408921861984085 1.9294693234424658 N
atom 4.7846210816872867 15.3142648855169661 11.9329952895336842 N
atom 4.8913764082557165 15.3735210530181128 6.9994815467902187 N
atom 4.7293549056525714 15.1821987529380351 2.0023453237873214 N
atom 6.3813663167666244 12.5879550028689486 12.0641413051607778 N
atom 6.2199776570995606 12.6297798230390104 7.0924543998628726 N
atom 6.2763019207806767 12.5613089391368753 2.0278613898135629 N
atom 7.7431621653229117 9.8934463198070439 12.2100938655539082 N
