#===============================================================================
# Created using the Atomic Simulation Environment (ASE)

# Thu May 11 09:00:38 2023

#=======================================================
lattice_vector 16.5841519999999996 0.0000000000000000 0.0000000000000000 
lattice_vector 0.0000000000000000 17.2347563186669994 0.0000000000000000 
lattice_vector 0.0000000000000000 0.0000000000000000 16.1779175999999900 
atom 0.0533596994861986 15.4071207215859065 2.6737010395840000 Ga
atom 1.5748884684033257 12.3687707673685150 13.3280952367661918 Ga
atom 1.6483755976530186 12.3762376535215992 8.0513071440590647 Ga
atom 1.6705394807597529 12.4529240272638368 2.6503320467914446 Ga
atom 3.3737225278924790 9.5751285543209530 13.4441207182270936 Ga
atom 3.3631753809582752 9.5217141338177189 8.0666271468922552 Ga
atom 3.2618597500457360 9.5033832284243207 2.5883446969658603 Ga
atom 4.9801128599853479 6.6045257192525053 13.4646377165820166 Ga
atom 4.9662815997335361 6.6599479077268375 8.0658909749225334 Ga
atom 5.0404357178718966 6.7225107647876490 2.6611424478663119 Ga
atom 6.7194685890588985 3.8032877760286699 13.5153554878687761 Ga
atom 6.5755835067160326 3.8642364155916016 8.1047324851008380 Ga
atom 8.3252165518195067 6.6926528280812798 13.5263399547303660 Ga
atom 8.2621358250908639 6.7500003682953000 8.1179915808373000 Ga
atom 8.3218536158012828 6.8037824368307458 2.7051675966707029 Ga
atom 9.9001812929817152 3.8531034137229621 13.4376661932090276 Ga
atom 9.9119901424914740 3.7828817863049946 8.1452768483947224 Ga
atom 9.8957114166971980 3.8845756558172284 2.7425280201640683 Ga
atom 11.6414951414393180 0.8921775568398942 13.3996378864663601 Ga
atom 11.5740721564912956 0.9501437604058470 8.1983317257151374 Ga
atom 11.6253502282118557 1.0636689578578424 2.6790116898040388 Ga
atom 0.0429743966546970 15.2599370865841735 13.5331157143347607 Ga
atom 0.0436311589077914 15.2579430334732304 8.1191020554647455 Ga
atom 3.2767817538957442 3.8338803237116941 8.0278203612651637 Ga
atom 3.3141854105312656 3.8107246303872331 2.6867589913419709 Ga
atom 4.9411944079920769 0.8970098111274679 13.4945225245036742 Ga
atom 5.0211441106523287 0.8929390638491871 8.0618092260313539 Ga
atom 5.0323217495345425 0.8965617943104983 2.6935079921316083 Ga
atom 0.0559062967571086 3.7876396033953097 13.5142304351808100 Ga
atom 16.5536291562014313 3.8309760617923398 8.0579565479497894 Ga
atom 0.0529839937589919 3.8264934348020065 2.7255955813352108 Ga
atom 1.6748120956766361 0.9324229418730975 13.4783386517009021 Ga
atom 1.6411569523846112 0.9612168781576852 8.1230904142586002 Ga
atom 1.7253830244499078 0.9876556024521832 2.7193587768054166 Ga
atom 6.5928519321124055 3.8134581437460029 2.6082932404917778 Ga
atom 8.2518937024638692 1.0464612350377809 13.5123525802284021 Ga
atom 8.2607394879012723 0.9504281411424886 8.0467195705457826 Ga
atom 8.3563265732125558 1.0199561961803389 2.6631906897799853 Ga
atom 16.5806664438276350 9.5631907377696539 13.4038263633555346 Ga
atom 0.1065073124437136 9.5835843847615791 8.0189899202389441 Ga
atom 16.5679702152519397 9.6136913758650095 2.7801729108065918 Ga
atom 1.6564916601010975 6.6826227602826105 13.5022859854337138 Ga
atom 1.6436788784681722 6.6418572098555329 8.0497947059119372 Ga
atom 1.5858945714821882 6.7319178961523125 2.7195411695311820 Ga
atom 3.3681141823983394 3.8384849671735721 13.3925520075433244 Ga
atom 11.5082940238123150 12.4862611698070474 2.6267644975514846 Ga
atom 13.2274156985506668 9.5857039990536244 13.4057472688961177 Ga
atom 13.2641935441265240 9.6020970854682606 8.0312103142909610 Ga
atom 13.3013630294476695 9.6456129563540767 2.6432980304484213 Ga
atom 15.0388589936561310 6.7069010266260261 13.5632129226083400 Ga
atom 14.8913950122267984 6.7145790527611373 8.0500414796866337 Ga
atom 14.8526371286172534 6.8405524930286292 2.6192676228890392 Ga
atom 6.6581903582776025 15.2979889768544766 13.4760327657218717 Ga
atom 6.6820176023849411 15.3056615869503521 7.9820015515204821 Ga
atom 6.6867007362578512 15.4162730760373936 2.6899240653941128 Ga
atom 8.2920833297291683 12.4279825514904996 13.5840891052762629 Ga
atom 8.2003253284409077 12.3462468751944474 8.0635937777092757 Ga
atom 13.3322449376989933 15.3171436885553423 13.5125806887275939 Ga
atom 13.2256627765140102 15.2622493422289889 8.1943041015816043 Ga
atom 13.2105738223592759 15.3302184646688460 2.6614568869015294 Ga
atom 15.0040586028553342 12.3783948636941901 13.5431739319041018 Ga
atom 14.8848092173303659 12.4324012043986585 8.1450084057203060 Ga
atom 14.8720811576335006 12.4423280478584601 2.6053992777566859 Ga
atom 9.9089611284760952 15.3712979937919023 13.4894151119289507 Ga
atom 10.0657518649196991 15.2159827583644098 8.1921810913567903 Ga
atom 9.8998904439799205 15.3586861269605794 2.5865018542785756 Ga
atom 11.7605440873253499 12.3981412775595601 13.5394317576584911 Ga
atom 11.6021796991305912 12.3416653810686121 8.0692731750815625 Ga
atom 14.8708746928195676 0.8946344670153246 8.0761398993780666 Ga
atom 14.9733645091766316 0.9052013298792954 2.7707913003446571 Ga
atom 3.3856310001268914 15.2548509297070911 13.4738697050842919 Ga
atom 3.2153631327686285 15.2725144643781210 8.0464508112407227 Ga
atom 3.3029105289833822 15.3788839930856742 2.7785922841955424 Ga
atom 4.9177793820027302 12.3983742869987736 13.4515369832568439 Ga
atom 4.9602503526226265 12.3366141990835807 8.1019976836288556 Ga
atom 4.9118100313743902 12.5823699605365782 2.6345134413455860 Ga
atom 6.6555400841612018 9.6026785596783473 13.4783241718867757 Ga
atom 6.6985843459757097 9.6131313810962951 8.1052315018350338 Ga
atom 6.5574510546769327 9.5863621259396048 2.6118904971108696 Ga
atom 8.2508729486189019 12.4673233356761202 2.7075011269262506 Ga
atom 9.9976004375404202 9.5719379634967048 13.5182508651524493 Ga
atom 9.9708751205263244 9.5452324777546345 8.1177475849414495 Ga
atom 9.9714304316284590 9.6218158672678005 2.7225035852745778 Ga
atom 11.7660249808015180 6.7174299661347785 13.5125358156196711 Ga
atom 11.5942885807311011 6.5697441870154858 8.1496593219541626 Ga
atom 11.5920648813373841 6.7192511529697985 2.6855303870175162 Ga
atom 13.2052012704561861 3.8272675270064260 13.5449909766564396 Ga
atom 13.2902710977059506 3.8691364247434663 8.1581549379187202 Ga
atom 13.2937412460640978 3.8055025656573198 2.7383618138166468 Ga
atom 14.9009572543399109 0.8867017106590940 13.4428983072589183 Ga
atom 6.5118404434537043 7.7272773804428851 5.3890096491610295 Ga
atom 8.3310099721593129 4.7594520893165324 0.1292151721302550 Ga
atom 8.2533567956542679 4.8855635552943841 10.7892751345637219 Ga
atom 8.2159275743857485 4.7883346926620076 5.4524130268000688 Ga
atom 9.9815543091181897 2.1129629984651666 16.1372598061387720 Ga
atom 9.9404194324807573 1.8260924198062092 10.8277282656616958 Ga
atom 10.0003439940259966 1.8978798623807822 5.3962580957322945 Ga
atom 16.5627357420650441 13.4287293625528648 16.1647717316143762 Ga
atom 16.5805422366361519 13.5139783117225409 10.8597785229090746 Ga
atom 16.5690971011363821 13.4053255367365569 5.4066504237366289 Ga
atom 1.6914033118062992 10.5738480532873140 16.0194681177153591 Ga
atom 1.7630266429221506 10.5967074106543002 10.7490725575331663 Ga
atom 1.8199019384414907 16.2806384747213038 16.1158538026678997 Ga
atom 1.6497283929271509 16.3270916378266548 10.8957091234505388 Ga
atom 1.6497402091754187 16.3546635949573655 5.3569646537761724 Ga
atom 3.1878575203776247 13.5086421093921754 16.1377349123926948 Ga
atom 3.2988898386363177 13.4922866767670371 10.7083376503202086 Ga
atom 3.3011385442577197 13.3870508672622393 5.4514910809062149 Ga
atom 4.9588147682205568 10.5895335444138468 0.0301859418427024 Ga
atom 5.0158014650943246 10.5124103541865974 10.8086313673808334 Ga
atom 4.9694884251935640 10.5034579817177054 5.2839435964166883 Ga
atom 6.7098576841150095 7.7380758808629135 16.0847069298989958 Ga
atom 6.6074792908828872 7.6575373242061984 10.8143130047618286 Ga
atom 0.0033543637645836 7.6984228211704293 10.7560941077583649 Ga
atom 16.4881638652174765 7.6029674117656798 5.4149227119814567 Ga
atom 1.6882832868523774 4.8594497462048958 16.0831379449671168 Ga
atom 1.6716005981477156 4.7216039669527579 10.7345146650854275 Ga
atom 1.6655196296737691 4.7658817792318029 5.3510681473334785 Ga
atom 3.2691269362213866 1.9278860141591718 0.0361421667175649 Ga
atom 3.2575464219312371 1.8626631882054268 10.7559926767257394 Ga
atom 3.2891920001014880 1.8616481159556093 5.3884791888605257 Ga
atom 16.5388848086679126 1.9974469627357936 0.0941123771214478 Ga
atom 16.5649436560182615 1.9298324983683945 10.7981662458390542 Ga
atom 16.4826885026422403 1.9760584082285715 5.4103462365837123 Ga
atom 1.6035270003642570 10.5212604403427097 5.3421451739141057 Ga
atom 3.3985861517112488 7.5980947636736147 16.1103255304882822 Ga
atom 3.3587454022002561 7.7033569264475554 10.6967577535033147 Ga
atom 3.2475980415123513 7.6107076684853725 5.3555272013977646 Ga
atom 4.9473918648883437 4.7987292259031387 16.1297939667195998 Ga
atom 4.9581053994381090 4.7858577482220914 10.7453933308074863 Ga
atom 4.9436125806727258 4.7987090753228339 5.3263036827270431 Ga
atom 6.6191922863719208 1.9087232539265497 16.1277499271047979 Ga
atom 6.6933322453322912 1.8391639613247746 10.8284628238438518 Ga
atom 6.6192433373331898 1.9338646860604312 5.3597521619415955 Ga
atom 0.1071504596279291 7.7441001201603790 0.0053150510549597 Ga
atom 14.9526822148210563 10.5449439548632000 5.3875193980120777 Ga
atom 8.2806721643068304 16.3674972885851773 0.0413145519414593 Ga
atom 8.2733063021453468 16.3547578717828692 10.7198914435064907 Ga
atom 8.2961660385121903 16.1830175286881470 5.4188544282544981 Ga
atom 9.8847245190889304 13.4487991872249797 0.0052823875971419 Ga
atom 9.9756142691773064 13.3270475931292438 10.8393230577903346 Ga
atom 9.9972024381167923 13.3987115156967782 5.4736295893407751 Ga
atom 11.7081393783632226 10.5418280337189412 16.1329994242909081 Ga
atom 11.6066161011563889 10.5111611750899705 10.8172660278476407 Ga
atom 11.5901960447471168 10.4743793406248056 5.3403832252925456 Ga
atom 13.4150927179800465 7.5886562479533328 16.1723015771548724 Ga
atom 13.2575363011643823 7.7146441626042828 10.7913705229917198 Ga
atom 14.9594399317095199 16.3159581271390621 0.1014871202510194 Ga
atom 14.9026611634035930 16.3187121834259870 10.8932617968020704 Ga
atom 14.9444285648919681 16.1787988943840233 5.4738787708501953 Ga
atom 11.5086447650949442 16.3501521475271829 16.1165167573121764 Ga
atom 11.5402857355665294 16.2525150157906104 10.8764698572955716 Ga
atom 11.6449724661898983 16.3417413929530255 5.3895390268249335 Ga
atom 13.2756365329822845 13.4543135289667983 0.0281118179734202 Ga
atom 13.2801291071085572 13.4351779284241175 10.8917673179524943 Ga
atom 13.2916404389940048 13.3206571868690400 5.2889263223607816 Ga
atom 14.9170261361584835 10.4471018767005699 16.0878736766028645 Ga
atom 14.9459990495472166 10.5711757386467227 10.7742422832710432 Ga
atom 8.2534066522244132 10.5262198210516171 10.8658252876618882 Ga
atom 8.2802122073921822 10.5527957051268206 5.3815244050801896 Ga
atom 9.9788335563658368 7.6368472291278175 16.1518739470050008 Ga
atom 9.8648297826683109 7.6123534877749677 10.8033085443256454 Ga
atom 9.9562886073813957 7.6625191847265404 5.4089185879876176 Ga
atom 11.6642759783399939 4.7636715356618780 0.0184940012056289 Ga
atom 11.5924235067008325 4.7889169785824111 10.8382585785253518 Ga
atom 11.6100697816361826 4.7521623906960375 5.4100842956179802 Ga
atom 13.3151407233444203 1.9491480489646662 0.0269860223034274 Ga
atom 13.2897482446618227 1.9204286015557537 10.8279361579420730 Ga
atom 13.1806980355758405 1.8979692124402401 5.4107231332703849 Ga
atom 13.2681435429667776 7.5934258255179401 5.3889491036179393 Ga
atom 14.9980101751521886 4.8085649049796571 0.1168989338357882 Ga
atom 14.9353979740345331 4.7533480205782563 10.7858799842142936 Ga
atom 14.8928120881981432 4.7812995652845860 5.4312273825421142 Ga
atom 4.9651411674435790 16.1870202787654343 0.0459622260533284 Ga
atom 5.0047268238720637 16.2515272015234764 10.7307847503078797 Ga
atom 8.3272283540405621 10.5704526407620101 0.0201911903780604 Ga
atom 6.5775555084117938 13.3654349685918490 5.3281758318377621 Ga
atom 6.5684286546196908 13.3912110107403510 10.8327656061223863 Ga
atom 6.5976622841199788 13.5174590009660616 0.0294138087082784 Ga
atom 4.8853511362385653 16.2596232204285762 5.3821921611545589 Ga
atom 3.4138054520539760 9.5992736876503919 10.0780375069496753 N
atom 3.4440924639819563 9.5855560963791433 15.4709000103434207 N
atom 1.6499518784425262 12.3941814676148105 4.8198758517329638 N
atom 1.6931244865745740 12.4383491041438692 10.1537566168827311 N
atom 1.5219498478463696 12.4617716289946650 15.4188257122622812 N
atom 0.0333670875939440 15.3027206279941836 4.7411471897473811 N
atom 3.2537045035739500 9.5596480446230636 4.6471571171245278 N
atom 5.0524753454065525 6.6134501123578229 15.5218696201740940 N
atom 5.0092349258899409 6.7344516515892829 10.0561365236414169 N
atom 4.9729086789728445 6.7371322011451804 4.7282952134612515 N
atom 6.6672256400067091 3.8644967554618672 15.5353869631818657 N
atom 6.6714237466589452 3.8174557682131383 10.0808161530789739 N
atom 8.3211726356601101 6.7835728040709666 15.4897983151703773 N
atom 8.2049671573041056 6.6731783876211432 10.1968857825832977 N
atom 8.2276320851426767 6.7787010845531013 4.7261962694616875 N
atom 10.0944533370969225 4.0177993539706849 15.4667384871676141 N
atom 9.9256677152966990 3.8661376622988808 10.1823756562109029 N
atom 9.9073502428603550 3.8173384427103225 4.7475809469597214 N
atom 11.6189530098573535 1.0043647011876933 15.5298952151698089 N
atom 11.5759440120121706 0.9958758294190543 10.1970938029144804 N
atom 11.5237107845623523 0.9177113819230170 4.6962600101570580 N
atom 16.5510065093402581 15.3702178393434981 15.4907323323599755 N
atom 16.5337051262357306 15.3360368273647687 10.1541717983032136 N
atom 3.2190383664329674 3.7678271145609581 10.1237977467466322 N
atom 3.3255245884793969 3.7797995286191588 4.7320170574143141 N
atom 4.9243936705764977 0.9506586662825783 15.5387681752897819 N
atom 5.0467279621572612 0.8885233383509070 10.1322393672015192 N
atom 4.9055172855295410 0.8710089644469333 4.7660196076846004 N
atom 0.0656456416403880 3.8547311504928810 15.5740571172560589 N
atom 16.4924441724746842 3.7828458730716346 10.1676762547700132 N
atom 0.0279538515133479 3.7941523732583171 4.7003629500857596 N
atom 1.6299611352374272 0.9869469326073579 15.5012529659006280 N
atom 1.5695336033671627 0.9445397487502413 10.1384772906669536 N
atom 1.5672152693046535 1.1081972321413069 4.6942216722275116 N
atom 6.6166483812883303 3.8658293289419521 4.6718583179113882 N
atom 8.2628381932010839 1.0812128098539413 15.5270803835937325 N
atom 8.3369930184886805 1.1194284310403704 10.0394433933106377 N
atom 8.2875701517910993 0.8520511963972692 4.8458914737074785 N
atom 16.5805992314926591 9.5212210863605193 15.4353367414302554 N
atom 0.0874596207756070 9.6498290532222519 10.0233532375300047 N
atom 0.0001075216186041 9.6194675924717057 4.8008817437999562 N
atom 1.7102165888889294 6.6888728609547758 15.4387448638745006 N
atom 1.6691945173790981 6.6073492556829692 10.1320491236296917 N
atom 1.5268379181800551 6.7173702853300208 4.6943138301664229 N
atom 3.2305922043811077 3.8396324986275059 15.4493697609607459 N
atom 11.6132754562575560 12.3003075334596499 4.6063673248578043 N
atom 13.3200847603407393 9.5061420680215569 15.4379100322971432 N
atom 13.2084979307231141 9.5764092223195778 10.0929874021683741 N
atom 13.3421607067203158 9.4927609772784702 4.7072120402951549 N
atom 15.1682501208477181 6.7540878418018684 15.6100537902577692 N
atom 14.8930724779659247 6.7293958655359223 10.1126530591195944 N
atom 14.9652962784244874 6.6217131590583262 4.6790473603117118 N
atom 6.6310178267299760 15.4283543297772834 15.5277086837336213 N
atom 6.5774851227283548 15.2970622998244927 10.0963690383022620 N
atom 6.5851503748030504 15.2380786596428219 4.7860548538991523 N
atom 8.3077745512394134 12.4598986257968694 15.5783306868699558 N
atom 8.2977447555074892 12.4408358944431399 10.1041927338888780 N
atom 13.2195464017384179 15.3850767950571683 15.5687501911732369 N
atom 13.1177221484060933 15.2253297583974447 10.2053501482258024 N
atom 13.2586131460037038 15.2868011439865281 4.7141362758643837 N
atom 14.8873701925313622 12.4091047967968322 15.5516310589055919 N
atom 14.9826370398339073 12.4461034122619765 10.1517056570232498 N
atom 15.0579200625349170 12.4242977487565298 4.7198527155389280 N
atom 9.8754160133287527 15.3897159522129812 15.4889058953705163 N
atom 9.9283105003030983 15.2951841463505058 10.2164520372685725 N
atom 9.9686930158473910 15.3792248689922886 4.7514087170186414 N
atom 11.6545051090529679 12.4554517422410083 15.6351151014059013 N
atom 11.5902439018716983 12.4287417982242356 10.1586453039061873 N
atom 14.8715383004706272 0.8543309353293690 10.1949703350304546 N
atom 14.9122734122510394 0.8924580257564986 4.8222061218590460 N
atom 3.2855859126907210 15.3159514258063183 15.4496404917660541 N
atom 3.3692611660240392 15.3756557053054159 10.1096310658540158 N
atom 3.3361043787119398 15.2613284833830143 4.7274317972028248 N
atom 4.9191669126200388 12.5959322563916505 15.5367635870463143 N
atom 4.9937754115794730 12.3347869916070092 10.0995127370497535 N
atom 4.8618366026529083 12.4534806358861960 4.6640858653893895 N
atom 6.5608083595778544 9.6763644185895803 15.4394724268863808 N
atom 6.6190078962586902 9.6030351814704922 10.1132494154166341 N
atom 6.7152087080330398 9.5702474484456044 4.6438857426470479 N
atom 8.2948477851612630 12.3131956327350576 4.6730599456603281 N
atom 9.9798855592093361 9.5748682023822234 15.4695969884683766 N
atom 9.8731600264044044 9.5814875658900274 10.1860431376621161 N
atom 9.8738930054188323 9.5168585073690402 4.8066182009306102 N
atom 11.7067320052067299 6.6350576523199623 15.5482480885275542 N
atom 11.5881389831538293 6.7147002569113932 10.1407785629557736 N
atom 11.5566688860135685 6.6432310362129154 4.7337096349074512 N
atom 13.3595570179014498 3.8623896890818599 15.5566833838227225 N
atom 13.2146192026822060 3.8307101099184893 10.2137417257841072 N
atom 13.2874403159176815 3.7274273290693860 4.7352886256204147 N
atom 14.8634879980947776 0.9114552508649387 15.4627960434837206 N
atom 6.7223121542415534 7.6991112331356657 1.9750892866853234 N
atom 8.3194359007687648 4.7421167440298948 12.8292138232697628 N
atom 8.3594175297653557 4.7903049731731402 7.3926977754356686 N
atom 8.2402777161858953 4.8824515045362560 2.0711204982728311 N
atom 9.9094996633722943 1.9138884773019369 12.9037821918533293 N
atom 9.9945739597299532 1.8873185402441659 7.4453783452577644 N
atom 9.8902445439593301 2.0747437589597064 1.9209164103457601 N
atom 16.5834500476886362 13.3934284670525212 12.8811988774490445 N
atom 0.1078367273322623 13.3483127984282746 7.4390720324743844 N
atom 0.0516853566551699 13.4472379174706269 2.0618649898944548 N
atom 1.6983390588906799 10.4576498502578268 12.8733531427012977 N
atom 1.7558356695911543 10.4815465527355887 7.3904669499781761 N
atom 1.6709778045551038 16.2416675453026471 12.8272348262388380 N
atom 1.6751139183875965 16.2578323426732467 7.4354426410936005 N
atom 1.6598977459960402 16.3305634983258265 1.9399973248336788 N
atom 3.2873595257267043 13.3958950938929870 12.6717541901597066 N
atom 3.3335815396693187 13.3454034802204049 7.4293596629748055 N
atom 3.3162276524586627 13.5311684868044875 1.9484309166069051 N
atom 4.9782341396399996 10.5144313034227306 12.8652589861280831 N
atom 5.1255872047695084 10.5099279252463411 7.3338118826470007 N
atom 5.0489160976416763 10.6255251756798845 1.9849595294060534 N
atom 6.6028841166292311 7.7056044380465973 12.9552788621588846 N
atom 6.6537334043029617 7.6787532783117065 7.4587071339842614 N
atom 16.5602397628989202 7.6031902941978915 7.3947379597304046 N
atom 16.5081925610516045 7.8377605521777962 2.0364172766099489 N
atom 1.6812412790988551 4.7768473936646219 12.7808053281436766 N
atom 1.7111852093092725 4.7810766318306026 7.4558213394656905 N
atom 1.6583991299653358 4.8749439881698731 2.0612693495830285 N
atom 3.2788409216531180 1.9484895747154483 12.7539505459516498 N
atom 3.1975955660267608 1.9155525735147800 7.4483303433226888 N
atom 3.3722045318992002 1.9392840170691183 2.0071149649692264 N
atom 0.0270884780424481 1.9679472226486354 12.9589763885965610 N
atom 16.5563657484509896 2.0047809756064696 7.3699539729395980 N
atom 0.0169177837188229 1.9734493330600356 2.1053145376667319 N
atom 1.5848623080528079 10.6341602198841105 1.9955375011985421 N
atom 3.3599250758163115 7.6412345412841187 12.7036806879573412 N
atom 3.2991982580929169 7.6321410498806044 7.3935583840043630 N
atom 3.2998236601565463 7.6116571895619929 2.0325231721555750 N
atom 5.1080455332833212 4.8044572733205211 12.7638308149258108 N
atom 4.9780279530195779 4.7601704653062971 7.3738028733628607 N
atom 4.8935162754250197 4.8119655627605162 2.0059677300833969 N
atom 6.6443870635585807 1.8740007274950570 12.7268643904898457 N
atom 6.6447439138540698 1.8495768828847945 7.4132086844736902 N
atom 6.6416847451399574 1.8713551834685738 1.9554421028212861 N
atom 0.0371922195470396 7.6531104571037369 12.8327020626415873 N
atom 14.9700671719270400 10.5565240334635160 2.0466593161816884 N
atom 8.1813254376489120 16.3118094324074505 12.8465602860106145 N
atom 8.3649098823218857 16.1931428077287585 7.5019544255361836 N
atom 8.2618612390745394 16.3223249378434900 2.0285958002280489 N
atom 10.0469556236521473 13.4219891423640370 12.9124667948542502 N
atom 9.9269589663150875 13.2449240785812528 7.4613581395207165 N
atom 9.8569286655900488 13.4779331570180023 2.0001830095289015 N
atom 11.6874468720172064 10.4313928862106060 12.7972934714665847 N
atom 11.4448646695855487 10.4521152365125349 7.4634840170911705 N
atom 11.6383729820051975 10.4888745768845162 1.9515556211496332 N
atom 13.4532643543531023 7.7007122828057604 12.8164563784451797 N
atom 13.2604051902073365 7.6532174814792198 7.4390643075923402 N
atom 14.9579206172696910 16.2609758701966527 12.7677913751920453 N
atom 14.9238031217970288 16.1202273283048783 7.4092968105803054 N
atom 14.8878515034880259 16.3335862281453750 2.1619487372561714 N
atom 11.6464778346017077 16.1704560094686691 12.8702346749362189 N
atom 11.6103216270480178 16.2455994475131895 7.4328231104636400 N
atom 11.4991996669347198 16.4161104163877134 1.8957263933215889 N
atom 13.4580901558760768 13.3662511983523942 12.8794629988945779 N
atom 13.2604696523910590 13.3809906839554831 7.3972805490667639 N
atom 13.2001456359003253 13.4989533438345646 2.0368818521530394 N
atom 15.0248665852907148 10.5181358747248410 12.7905593184848279 N
atom 14.8922792983571792 10.5238598794655740 7.4689640449818615 N
atom 8.3039394667658808 10.4791168516235409 7.3821742694596386 N
atom 8.3423310258253824 10.6591430897472055 2.0589269702446931 N
atom 9.9568064877507982 7.6532193095365599 12.7784012065604919 N
atom 9.9527384204192106 7.6055906565752966 7.4184929388337872 N
atom 9.9336400268316734 7.7587312195842317 2.1024727523386213 N
atom 11.6279509642335324 4.7908735150616675 12.8352435770093578 N
atom 11.5558399542405219 4.6898553036524619 7.4869705822626349 N
atom 11.6664657732875625 4.8113450545578704 1.9865389444889305 N
atom 13.3091893524543217 1.8154506515454172 12.7952153769133101 N
atom 13.2289176594098006 1.8431616153007429 7.5047580663205524 N
atom 13.3456663898830765 1.9476106237278323 2.0274451216627924 N
atom 13.2750637432100049 7.7489522334778815 1.9908756568675752 N
atom 14.9068803631390825 4.8187793376624493 12.8212065889962084 N
atom 14.9288758992475223 4.7767523922246404 7.4938459245106088 N
atom 14.9041303956752458 4.8565254035656320 2.1626866218147489 N
atom 5.0075838612678778 16.2253108561539889 12.9428109403794114 N
atom 4.8962275224789327 16.2497733945349658 7.3867999737706107 N
atom 4.9874311795654052 16.2410295754226048 1.9820479763994765 N
atom 6.6113446081655125 13.3744488820946152 12.9157581539041182 N
atom 6.5149183120756771 13.2870319862659354 7.4516372067243379 N
atom 6.6007910548423814 13.5510959818958305 2.0528639067533847 N
atom 8.3412103834171099 10.5804997363241284 12.8933103124752044 N
