#===============================================================================
# Created using the Atomic Simulation Environment (ASE)

# Thu May 11 08:59:12 2023

#=======================================================
lattice_vector 15.6273739999999997 0.0000000000000000 0.0000000000000000 
lattice_vector 0.0000000000000000 16.2404434541285205 0.0000000000000000 
lattice_vector 0.0000000000000000 0.0000000000000000 15.2445761999999903 
atom 0.0215640957197255 14.4681654387506260 2.6036796109245310 Ga
atom 1.6069959493079142 11.8317685090140561 12.7348373115688656 Ga
atom 1.5609958985349917 11.6912244709136015 7.6131334986573442 Ga
atom 1.5908002924204332 11.6767825529805620 2.4589940963209718 Ga
atom 3.1143528304693002 9.0690153685538331 12.7103522364034465 Ga
atom 3.0731296410537983 8.8977483679259066 7.6857025217442487 Ga
atom 3.1390319369164295 9.0853821318854777 2.5517175039320530 Ga
atom 4.6986712397529455 6.3336208290400240 12.6605188721801873 Ga
atom 4.7002957814480668 6.2708536206264451 7.6548316665225427 Ga
atom 4.6840492186521638 6.1870409033545046 2.4081624184029127 Ga
atom 6.2818143806339188 3.6300326668978173 12.6759267512852993 Ga
atom 6.3010396602008498 3.5837616603295199 7.6217431008287999 Ga
atom 7.8625905129607139 6.4222711159287673 12.6025849596050392 Ga
atom 7.7240268986763558 6.3476761865198306 7.5641461715345724 Ga
atom 7.8022620920684176 6.4427800248448621 2.6006780384444586 Ga
atom 9.3494293432708844 3.6250855441526246 12.7136523403552388 Ga
atom 9.4047661373910554 3.5977355402736650 7.6615054019511053 Ga
atom 9.4092338720195396 3.6195257588613599 2.4456939944939879 Ga
atom 10.9243570405931276 0.8200517380432819 12.7097154666799490 Ga
atom 10.9599675964781813 0.9683545120573055 7.6674308911849112 Ga
atom 10.8481048669292548 0.8565037264447259 2.4077149096535888 Ga
atom 15.5635221357784879 14.4651702379986951 12.7505449164335420 Ga
atom 15.5876247382753430 14.5214298357391058 7.5362327198941683 Ga
atom 3.1446051313871379 3.5135165546066571 7.5853263707429353 Ga
atom 3.1923550671045651 3.6783684602923845 2.5427905575831815 Ga
atom 4.7511967180030732 0.9334309122627386 12.7112448274099439 Ga
atom 4.6578989979744039 0.8710133515001300 7.6624579155460770 Ga
atom 4.6454231336253713 1.0421617371206497 2.5578513386267980 Ga
atom 15.5903881007595544 3.7121977566507431 12.7352314127274120 Ga
atom 15.6058403816609630 3.5598663954733683 7.5656427719280988 Ga
atom 0.0655101696657829 3.6053170871660898 2.6140502089506996 Ga
atom 1.6085078828207724 0.9396988054071257 12.8672348051349825 Ga
atom 1.4468219253071994 0.9331039749675846 7.5759238022197479 Ga
atom 1.4409086206701438 0.9413334606460267 2.6179220224223356 Ga
atom 6.2433307762361494 3.6339702398259428 2.5630961926404656 Ga
atom 7.9371067569445977 0.9402082533250241 12.7426259715245553 Ga
atom 7.6915292319492252 0.8865692858894373 7.5786935402970874 Ga
atom 7.7517210306821624 0.9668848313507069 2.4200310647952921 Ga
atom 0.0014126800165324 9.1661316101347960 12.6329097720896133 Ga
atom 15.5292544222168125 9.0358422725165131 7.5194742662742486 Ga
atom 0.1100607093168963 9.0109296319091232 2.4039132189492922 Ga
atom 1.6735941621194761 6.3590423716993234 12.5930385601527348 Ga
atom 1.6207652160469479 6.2910511652789358 7.6508125492024419 Ga
atom 1.7187287095365700 6.3807057472254005 2.5976561446287487 Ga
atom 3.2142790381211852 3.6855205622417655 12.8486241452741154 Ga
atom 10.9275660228528952 11.6760015576662628 2.6515972824018608 Ga
atom 12.5088023508702975 8.8640051842898000 12.6471534684644791 Ga
atom 12.4809558575933774 8.9801251221629563 7.7143276700221168 Ga
atom 12.5262629285687161 9.0183512908594476 2.6332035205927342 Ga
atom 14.0727453442250354 6.3075795636136762 12.7087871635946374 Ga
atom 14.0118745207518121 6.2077175612587103 7.5694212459965389 Ga
atom 14.0831978868938030 6.3205503328240455 2.4468020384545155 Ga
atom 6.2153852188583940 14.4247787033761554 12.8783343820705163 Ga
atom 6.2021394028315671 14.3833487975292265 7.5299998703275550 Ga
atom 6.2895931563007492 14.6160597352181121 2.4622763580579736 Ga
atom 7.8909781334601314 11.7263618414560042 12.6558081196912866 Ga
atom 7.7900855255469050 11.7833633724489779 7.5995194283870511 Ga
atom 12.3911531409260274 14.4775210397581375 12.7698336251773750 Ga
atom 12.5316116960488788 14.4280159274976025 7.5679878108000453 Ga
atom 12.4609386347590956 14.4804306006200427 2.5682043302435704 Ga
atom 14.1127371311198981 11.7280837152650061 12.6592836536370648 Ga
atom 14.0057875130804597 11.7273168881301419 7.5851966020359320 Ga
atom 14.0934692938435262 11.7789687679588493 2.4691160067484828 Ga
atom 9.3014445738826250 14.4018393540413001 12.5787033392519874 Ga
atom 9.3752461038864414 14.5106826410902130 7.7195798973029710 Ga
atom 9.3977279369631077 14.3443594289658343 2.5571004701481566 Ga
atom 10.9091932391010928 11.7629240869181153 12.6959782664218235 Ga
atom 10.9064391074802618 11.6338470026129990 7.6186059886226385 Ga
atom 14.0044701134301217 0.9392647369858765 7.6039216849594160 Ga
atom 14.0025236912884523 0.9462966456463142 2.6135971777048601 Ga
atom 3.1707394941319675 14.3974730171449163 12.7483664156680767 Ga
atom 3.0074098613625759 14.4399119643592808 7.5854179078952892 Ga
atom 3.1619462560281564 14.4775609674597074 2.5655397084329143 Ga
atom 4.7061520207636622 11.7649093017366582 12.6685955930890390 Ga
atom 4.6340011232223990 11.6851919632834562 7.6975075923769385 Ga
atom 4.5893480342597517 11.7986370825996900 2.5493452458938450 Ga
atom 6.2703063140760307 8.9551316698465762 12.7046233349394360 Ga
atom 6.1809447656459593 8.9899534072957454 7.5459396559494474 Ga
atom 6.2289302394873269 9.0609197514489068 2.4680853274066115 Ga
atom 7.7048307199983519 11.8327125895843750 2.5967211852736414 Ga
atom 9.4009007667439750 9.0473083837691757 12.7812617347756703 Ga
atom 9.4106371744264905 9.0579945589056869 7.6936652719874594 Ga
atom 9.3725510548994642 9.0679598105316384 2.5933200985165126 Ga
atom 10.9664476426212190 6.2730946212992169 12.7668933764134049 Ga
atom 10.9687541040793839 6.2121248879527586 7.6273922864496591 Ga
atom 10.8634019204910324 6.3305538004390334 2.5803442501718568 Ga
atom 12.5172166389168567 3.4377274799853379 12.5871669478504202 Ga
atom 12.5507283008492081 3.6072228200834320 7.6677776448651809 Ga
atom 12.5450554608734048 3.6035250501728080 2.5150909825295780 Ga
atom 14.1026388933360263 0.8172550298683183 12.8187576937758188 Ga
atom 6.2457999595432421 7.1634340995454036 5.0161268305033255 Ga
atom 7.8387332623739505 4.6130265657292862 0.0254401560328508 Ga
atom 7.7682746279221258 4.5078963215090582 10.0643219543084150 Ga
atom 7.8357229622193749 4.3856749826596406 5.0009653869488613 Ga
atom 9.3624973787802404 1.7573641908434752 0.1348843958264109 Ga
atom 9.3319731279137557 1.8481955368044607 10.2014833122277242 Ga
atom 9.3382243908293212 1.6882830300525842 5.1458139808080157 Ga
atom 0.0133288467898034 12.7352139144546221 0.0288382028544049 Ga
atom 15.6231886289549422 12.7563019336673147 10.1417579970363008 Ga
atom 0.1280573600212612 12.4546953485844778 5.0608045183634287 Ga
atom 1.6451155828359945 10.0573151878673652 15.1976532610991235 Ga
atom 1.6213150992011465 9.9099722092284335 10.1640163238933532 Ga
atom 1.4760705618913961 15.3146983624503843 0.0021768385837694 Ga
atom 1.5267302052108422 15.4231411340953706 10.2490557126808604 Ga
atom 1.5850408244956617 15.3148684184662436 5.0502087163039393 Ga
atom 3.1040232028276007 12.7157107108228118 0.0278004808372459 Ga
atom 3.0623926275885234 12.7053357808678289 10.1249971717740621 Ga
atom 3.1892851985474970 12.7531773184444290 5.0467194830466005 Ga
atom 4.6548457373073191 10.0346426308482197 15.1557417243305412 Ga
atom 4.7350501468325028 9.9208869577381318 10.1284316115908055 Ga
atom 4.7576402385136447 9.9347297827321324 5.0482587622058102 Ga
atom 6.1789413773830564 7.2502493627038191 15.2352063019131094 Ga
atom 6.1433325180258844 7.3168730722247224 10.0433878520069229 Ga
atom 15.5057830828007237 7.2490113680612218 10.1764221292968493 Ga
atom 0.0593212150145540 7.1883219311665982 5.1062374274535447 Ga
atom 1.6574716692262386 4.4380149807065452 0.0415459229389027 Ga
atom 1.6217437505864860 4.4461086688315241 10.0961173677997724 Ga
atom 1.5831234695185767 4.5833608722482717 5.0988444891380817 Ga
atom 3.2313585527771425 1.7123498853385839 0.1011427695576131 Ga
atom 3.1278190771417647 1.8135122981286109 10.1792806926187289 Ga
atom 3.1983722202669287 1.8229887893020056 5.1165714970899714 Ga
atom 0.0844408549159684 1.8268669159259354 0.0548242469364558 Ga
atom 0.0134381612027938 1.7678750053065053 10.3044355367125764 Ga
atom 0.0314838757946596 1.7786822975068979 5.0999932216772486 Ga
atom 1.6434667673374317 9.8445598277701531 4.9992542967568294 Ga
atom 3.0615077033431919 7.1587985441013524 15.1516896873271438 Ga
atom 2.9893188154899284 7.2055240102542228 10.0835356395684634 Ga
atom 3.1833199904398524 7.2498104802104182 5.1500780195962967 Ga
atom 4.7166003403054138 4.5151270013353537 15.1862530970612344 Ga
atom 4.6587303273164142 4.4600862962300623 10.2176662499464577 Ga
atom 4.7725736281134488 4.5026072483707864 5.1616555031997953 Ga
atom 6.2702034902066934 1.8200853231970804 0.1011935540172134 Ga
atom 6.3200174461198291 1.8094641492116144 10.1045848030641299 Ga
atom 6.2595230124536734 1.7623683917255284 5.0643379793860115 Ga
atom 0.1386063752965576 7.1845302537609008 15.1813283147353175 Ga
atom 14.1605641013389238 9.8835680460889339 5.0980946771187847 Ga
atom 7.9049840949670944 15.3560589042514994 15.1335967808695777 Ga
atom 7.8834842689170124 15.2936624160209949 10.1719247322862003 Ga
atom 7.7460731081622658 15.3006354805998388 5.0929757452863234 Ga
atom 9.3296714322355090 12.6807732857401163 0.0048456538390608 Ga
atom 9.3404032060612217 12.4902862386652167 10.2556512966331255 Ga
atom 9.3092628232814949 12.5785074009182587 5.1007473005764385 Ga
atom 10.9441352727174142 9.8936813406435906 0.0703586946780236 Ga
atom 10.9158459918203334 9.8362611049084467 10.1662999276485415 Ga
atom 10.9463571148801933 9.8135577357717843 5.1409874505415933 Ga
atom 12.5651943102316697 7.1683102038853752 0.0952283406978534 Ga
atom 12.5855627918123165 7.2033339354940331 10.2395707139654402 Ga
atom 14.0053745815544204 15.4559597344449529 0.1711288872686345 Ga
atom 13.9659159630353464 15.3762421209663387 10.1679743618518987 Ga
atom 13.9987972457804251 15.3301676320393163 5.1255720696497429 Ga
atom 10.9977262314534165 15.3757457508914364 15.1476088101898068 Ga
atom 11.0174944903513907 15.2907248857343614 10.1146876274116657 Ga
atom 10.8898068262179617 15.3866988515066900 5.1183816139181122 Ga
atom 12.3516287143286068 12.6674838355720230 0.0844897793037110 Ga
atom 12.4861900780134558 12.4933771057808300 10.2176204053657020 Ga
atom 12.4833977940020979 12.6382955989435182 5.0023731231955200 Ga
atom 14.1159553007465970 9.9523166799019087 15.2281195007309655 Ga
atom 14.0544566462582008 9.9646044866247241 10.1835561823111203 Ga
atom 7.8150436086024673 9.7976714712741959 10.0266663772532088 Ga
atom 7.7589999753386731 9.9720212525410510 4.9880616422307389 Ga
atom 9.4108757011281856 7.1592055726175445 15.1975146145546276 Ga
atom 9.5173616790550142 7.1614132897526224 10.1666844935788010 Ga
atom 9.4138602150575341 7.1195894863070777 5.1548442025179702 Ga
atom 10.9963001243793279 4.4301873240195100 15.2051377486356145 Ga
atom 11.0111054494227520 4.5586696261613628 10.2664566094235017 Ga
atom 10.9639755806025914 4.5129337657372819 5.1362603050133870 Ga
atom 12.5195049785052035 1.8595799803533395 15.1422886031899875 Ga
atom 12.5175050978085824 1.8172078404249796 10.1144366638909258 Ga
atom 12.4956272995046316 1.8557146431137093 5.0626200789320119 Ga
atom 12.5970573335327956 7.0984021408764466 5.1035549163856251 Ga
atom 14.1802958957954477 4.3435760375797043 15.2003412401635902 Ga
atom 14.0133177030398457 4.3713228468268284 10.0689913341288371 Ga
atom 13.9543610482304477 4.4433033479852853 5.0092029237640361 Ga
atom 4.6621620385959730 15.3106370276953410 0.0703423349811974 Ga
atom 4.6538322900515885 15.3757770953872566 10.2383435364606328 Ga
atom 7.7849272072728128 9.8846485202644381 0.0534120129765312 Ga
atom 6.1509535407459728 12.7007441897112798 4.9984647924448460 Ga
atom 6.1464846417593586 12.7308511481978908 10.1891090055378601 Ga
atom 6.1740585107284680 12.6843831804754501 15.1975752612531547 Ga
atom 4.6411287264328767 15.3611279314131881 5.0386692449658259 Ga
atom 3.1579307807974684 9.0119178670705100 9.5456997505206793 N
atom 3.1549914981348031 9.1012115929612669 14.5994205087606073 N
atom 1.6576099611847299 11.6829919059907272 4.3609929296973018 N
atom 1.5966741870135628 11.7111514726937358 9.5767763045662324 N
atom 1.6008956985316374 11.8130802681092479 14.5433469937408777 N
atom 15.5241603020525876 14.2936265545452539 4.5802455256951777 N
atom 3.2603895505332519 9.0553106794813640 4.3518610725420359 N
atom 4.6237295369302744 6.3152566272209194 14.5693169542747398 N
atom 4.5132204903237465 6.3694836485347821 9.5487096836696566 N
atom 4.6802737622515620 6.2328622408586511 4.3577341954699573 N
atom 6.3737942821764353 3.6050900892315494 14.5068742422468837 N
atom 6.2365354826141974 3.5805784406641501 9.5559445986712745 N
atom 7.9160859507144377 6.2868954708974698 14.4929865733350240 N
atom 7.6966509110162544 6.3855434609382993 9.6288136345639632 N
atom 7.8893032102795360 6.2415421715887955 4.4894673376543777 N
atom 9.2996651423982133 3.5017991085980049 14.6328554668017290 N
atom 9.3383161936723909 3.6721339181655477 9.6165787996154357 N
atom 9.4472960951935896 3.5128996951900837 4.3983949573311989 N
atom 10.8974843150197263 0.9296698374575724 14.6524762135269686 N
atom 10.9559807616942830 0.9156597887920930 9.6379697634064421 N
atom 10.8232757254894043 0.8870365314759133 4.3563458203840293 N
atom 15.4972021638209316 14.4877113452295472 14.7508247876761551 N
atom 15.5318581654962422 14.5077399714923505 9.6027668565286142 N
atom 3.2853184819277987 3.5655436762167696 9.4753473807160979 N
atom 3.1872355082705637 3.5712583561015130 4.4293106774702418 N
atom 4.7874448589489704 0.8009744592242687 14.7055637141454021 N
atom 4.7399231833025093 0.9629610891569450 9.4402007130433727 N
atom 4.7466612962857964 0.9856359449783785 4.5231354278804377 N
atom 0.0999942492104641 3.5048273791711901 14.6173085599011223 N
atom 0.0730774986589440 3.6334162003564749 9.4664033239248706 N
atom 0.0624120999625649 3.6033437963041126 4.4852522755611952 N
atom 1.5933243975580500 0.9074300009626363 14.7696722634643436 N
atom 1.5327149609705277 0.8612269430907024 9.4783052474075031 N
atom 1.5566239469273424 0.9601727383823927 4.5277366616408532 N
atom 6.3277392666669403 3.6432117871593830 4.5536659925422800 N
atom 7.9306365327941162 0.9178460606548015 14.5937249001450127 N
atom 7.7975677149811116 0.8780916389916158 9.4563132465766877 N
atom 7.7492939647273014 0.8511800577393863 4.4077175683203693 N
atom 0.0492982284984157 9.0686003052853046 14.5030204392608866 N
atom 15.5980454265575172 9.0035850288841548 9.4833602605902723 N
atom 0.0169453591438141 8.9132948091018722 4.3220777755484701 N
atom 1.5917334664333402 6.2515552829540164 14.4598079570131652 N
atom 1.4368935325706094 6.3363836356564729 9.5072025137765923 N
atom 1.6045702540984743 6.3465117818600438 4.5086885923556785 N
atom 3.2794506171583335 3.4766409112042163 14.7626029053988610 N
atom 10.8431796830661362 11.6865907940109022 4.4921631936424342 N
atom 12.5000830299099874 9.0276954545435881 14.6359919182689300 N
atom 12.4308262959253391 9.0516228255718705 9.6624670910559125 N
atom 12.5620277744650721 8.9924533102678659 4.5302082066330778 N
atom 14.1810766783151490 6.2453093092040417 14.6530175064700305 N
atom 14.0407379971384803 6.1787075498533550 9.4859919988297445 N
atom 14.1888526880658628 6.2404680923732476 4.4159732084194925 N
atom 6.3029450505533227 14.4090637670744606 14.7017583579801698 N
atom 6.1800343719371122 14.4813259515580466 9.4629471357095696 N
atom 6.2032246353206828 14.4624454104381552 4.5013954266518246 N
atom 7.6738591263018989 11.7202474818469629 14.5626187855967935 N
atom 7.7443734559928306 11.6638000995919189 9.4929758504897475 N
atom 12.6448829562993144 14.4723998497936641 14.6131856241895370 N
atom 12.4294663759990573 14.3144786454177613 9.4255170724891819 N
atom 12.3211723868052410 14.5502047509480334 4.5161406060264406 N
atom 14.0176971911983319 11.7757163714661992 14.5449278694107758 N
atom 14.0281298809354009 11.7988198208406949 9.4642622863465622 N
atom 14.1033391189149633 11.6859403276917018 4.4110087263982747 N
atom 9.3385302693807564 14.4006407843497382 14.5477499412893625 N
atom 9.3711145246849359 14.4646565207123068 9.5836691082909287 N
atom 9.2887058696779494 14.3558433064871807 4.4805550920791655 N
atom 10.9753950081544449 11.7779279316914174 14.7502841481355986 N
atom 10.9333695195258898 11.6698120447979043 9.6047574366620694 N
atom 14.1394166576443361 0.9456802940693821 9.5489400171406587 N
atom 14.0827452702858054 0.8823299115179121 4.5313384171411304 N
atom 3.0343164751135601 14.4332491141909234 14.6207606707125866 N
atom 3.0709485080091676 14.5317235648734968 9.5833818662974384 N
atom 3.1129627315062467 14.4902693913289937 4.4568177580924342 N
atom 4.7848639550010059 11.7705483123583754 14.6178791426699508 N
atom 4.5730819792653890 11.7344795750449808 9.6600166855126179 N
atom 4.7089435434584299 11.6736970476886057 4.4074945382765778 N
atom 6.1798203956871367 9.0277290711411098 14.7209023464572564 N
atom 6.2591744363131117 9.0496291851032638 9.4856862946218072 N
atom 6.1701731371198658 8.9724526801022790 4.3397999649302310 N
atom 7.6862574897386349 11.7933138895288678 4.3450177789489706 N
atom 9.3631039475547801 9.0686020941615428 14.6224589599001362 N
atom 9.3081481086869466 9.0090247008110573 9.5364397814323940 N
atom 9.4002920594903525 8.9557921725207734 4.5237879969442885 N
atom 11.0239830780354371 6.2442987747907654 14.6261721137607505 N
atom 11.0728793693314298 6.2483588240866128 9.5560354806221106 N
atom 10.9653204198294816 6.2438095036545418 4.4600646848134744 N
atom 12.5696721379240444 3.6104153954416387 14.4850142791886007 N
atom 12.4346615033155441 3.6170887998394390 9.4366027084968334 N
atom 12.4593665730649601 3.6563500417457448 4.3545249814858193 N
atom 14.0096239480087057 0.9098162245127736 14.7231989692971439 N
atom 6.2115964676403239 7.1520012721977944 1.8957938222117297 N
atom 7.8739802779873838 4.6376881322383436 11.9857263234105496 N
atom 7.7551238451072280 4.5781582959520337 6.9611983908329629 N
atom 7.8477808063526107 4.5868552663188300 1.9400607298977746 N
atom 9.3996675245302690 1.8519367138928504 12.0499701732436346 N
atom 9.3429622904767040 1.7485763826068237 7.0399430435569359 N
atom 9.3675758986051996 1.7716445092522928 1.9159793558083262 N
atom 0.0217430541700448 12.6617054145565611 12.0842632605417837 N
atom 15.6084003271899174 12.6216234847761921 6.9834495764152473 N
atom 0.0294177977302413 12.7283177219557437 2.0032855782133439 N
atom 1.7230655846465834 10.1182422905020530 12.0231459621369776 N
atom 1.5240813459450555 9.8427489593796782 6.9146753197138011 N
atom 1.5725557684290388 15.3530683208931293 12.2252589809817849 N
atom 1.4364617820610355 15.4326379583036442 7.0278769461628610 N
atom 1.6161581445201392 15.4004014375086395 1.9214212655667393 N
atom 3.1656766332095492 12.6659712891154612 12.0697125561120249 N
atom 3.0978273866708959 12.6808286142738655 6.9726635578472793 N
atom 3.0880172465413733 12.7428154735243595 1.9235278014018908 N
atom 4.7997392132122449 9.9731034877025913 12.0441230208179473 N
atom 4.5684603295430266 9.8190206294985494 6.9708843070863686 N
atom 4.6377787411712124 9.9951911717907453 1.8399355135651629 N
atom 6.2629030970199988 7.1769688238530014 12.0170444495605526 N
atom 6.1764097243355343 7.1737625862452870 6.8626645956622410 N
atom 0.0314593222118407 7.1537929445427748 6.8963235777595306 N
atom 0.1296476921596647 7.1501687714819084 1.8444904989510631 N
atom 1.5963968127035404 4.6512822521547816 12.0273695415276336 N
atom 1.5223611370209091 4.4304812844637773 7.0455581189499599 N
atom 1.6013960211072567 4.5779587314247587 1.9742431339051454 N
atom 3.2339229855432339 1.8641997941937731 12.1263400170239759 N
atom 3.0481131899649729 1.7875299873546431 7.0319633864216788 N
atom 3.0993336231389241 1.8253416111111407 2.0887377086596195 N
atom 15.5745790002404494 1.8708584911145960 12.1178086731245465 N
atom 15.5875455888979371 1.8563640758724114 7.0388637146060686 N
atom 15.5671549552649182 1.8349830073437938 1.9337629742300511 N
atom 1.6251855507566462 9.9185801371871118 1.8274379228158730 N
atom 3.1066193231683821 7.3161609928042832 12.1382892767449047 N
atom 3.1364374080899191 7.2167168686112202 7.0290827175642718 N
atom 3.0884394889787354 7.3279249520692202 1.8053536389989793 N
atom 4.6797603035332056 4.6025616296970853 12.1610398630150911 N
atom 4.7234172292626635 4.5429512447695259 7.1492357272592191 N
atom 4.7952191940062150 4.5156090394643016 1.9049959672423951 N
atom 6.3514094670719574 1.8366353411036125 11.9737786085653681 N
atom 6.1574184323915331 1.6831173294087554 7.0539464150064068 N
atom 6.1791149327663311 1.9557553629995936 2.0152495285818750 N
atom 15.6184058952530922 7.4220875025085036 12.0408289954453291 N
atom 14.1367117063744807 9.8803560261023478 1.8790999551728522 N
atom 7.7587500936862348 15.3733395979455878 11.9741713267934315 N
atom 7.7002083083918116 15.3950632729368646 6.8908489663512373 N
atom 7.7517200086192419 15.4034952518041610 1.8741102892201411 N
atom 9.3716733305782078 12.5813319843802187 12.0732804512107510 N
atom 9.3406715899254795 12.7613383647127385 7.0133302801155502 N
atom 9.3260819143766867 12.5483328822321916 1.9071086603713256 N
atom 10.9183886753958816 9.8241228857295972 12.0458298541864757 N
atom 10.9201834095555927 9.8546025982358127 6.9689179303108846 N
atom 10.8693025374466039 9.8442784474494740 1.9208104957679633 N
atom 12.4926494967032280 7.1385358413810280 12.1112363360985000 N
atom 12.5614249408692054 7.2027041084279846 6.9593533787665294 N
atom 14.0845118361937374 15.3116626022662068 12.1320876118685952 N
atom 14.0945286048673388 15.3927230209180106 6.9920355986811318 N
atom 14.1043942264394264 15.3879019608473460 2.0796724997896261 N
atom 10.8766245145249822 15.2353345480792779 12.0864472584973086 N
atom 10.9341901646168580 15.3374347743466863 7.1165425647702891 N
atom 10.8585612912420686 15.3205045797002093 1.7798036113859221 N
atom 12.4742683445543765 12.6545779055987264 12.0829006326707802 N
atom 12.3921931738748441 12.7092357984813109 6.9170894431488188 N
atom 12.4155364789643006 12.7664219599461983 2.0117935098975424 N
atom 14.0343202857861513 9.8897868351722238 12.1695735774593832 N
atom 14.0369144065630174 9.9560490157316970 7.0611477465325843 N
atom 7.7730750081722135 9.9169614738563645 6.8687368205677215 N
atom 7.7766763218220323 10.0075930820457923 1.9566107264865797 N
atom 9.5701599523046621 7.1857957667671206 12.0461250724420950 N
atom 9.4262630045131992 7.2000283527443676 7.0717358280121294 N
atom 9.3233373554497589 7.3121030573809573 1.9619907860934283 N
atom 10.9419601164026012 4.4313567622312977 12.0780065675266997 N
atom 10.9265207788402652 4.3790574011873318 7.0303989168114800 N
atom 10.8997146041872757 4.5417982513243240 1.7752849495409233 N
atom 12.4910268023906230 1.6093115836214693 12.0834578832459485 N
atom 12.4572233963587298 1.8407693930517772 6.8795075546584883 N
atom 12.4410591646131028 1.8085522827087619 1.8151682445786035 N
atom 12.6127952939440195 7.3247588489248718 1.9379117288949461 N
atom 13.9846307239608691 4.5429579928163726 12.0232053444535563 N
atom 14.0691900357205544 4.3706751139915587 6.9362306707198869 N
atom 14.1444910054608251 4.4590271081619743 1.9570918006669482 N
atom 4.5931673967257209 15.3860325597195207 12.1815931964081035 N
atom 4.5602068130885005 15.2966150729449293 6.9643489152701630 N
atom 4.6900619872837730 15.5452452731962101 1.9794633279249576 N
atom 6.2846241445713291 12.6788636661073895 12.0769606884987226 N
atom 6.2067534383473886 12.5736867727410768 6.9889893862189707 N
atom 6.1105554096893702 12.7383860941557732 1.8571885783567301 N
atom 7.9308540958166258 9.8998708432356448 12.0032524745934506 N
