#===============================================================================
# Created using the Atomic Simulation Environment (ASE)

# Thu May 11 08:59:16 2023

#=======================================================
lattice_vector 15.6273739999999997 0.0000000000000000 0.0000000000000000 
lattice_vector 0.0000000000000000 16.2404434541285205 0.0000000000000000 
lattice_vector 0.0000000000000000 0.0000000000000000 15.2445761999999903 
atom 15.5738713278180523 14.4869549539884588 2.5696364398241589 Ga
atom 1.7320771968301760 11.6010836915181912 12.8759444706856225 Ga
atom 1.4455491587182929 11.9633571821348621 7.6506727855064360 Ga
atom 1.6283282901710832 11.7361244430274692 2.5885302026955870 Ga
atom 3.1099439851824933 8.7692888241381759 12.6881715617497139 Ga
atom 3.0896935544029436 9.1588983194905875 7.6044003421233564 Ga
atom 3.2537809428608382 9.0552740283753348 2.6020626610116402 Ga
atom 4.6531763380147808 6.3330915115743984 12.6932595283784000 Ga
atom 4.6907636961108468 6.3720932060419209 7.6240794661757887 Ga
atom 4.7841738784972820 6.1264955162140096 2.5517740551994237 Ga
atom 6.4407380177717464 3.4739886192299867 12.6171812718268868 Ga
atom 6.1622796209330932 3.6120608459456114 7.5796874714106890 Ga
atom 7.7212070309440488 6.3677253959302504 12.7621900946225200 Ga
atom 7.8860951349164443 6.4089442188211097 7.4656955644318046 Ga
atom 7.8767257740662071 6.3092948356421381 2.5578788571320517 Ga
atom 9.2884960736623796 3.4748935641138172 12.7677442751318093 Ga
atom 9.3140139205153254 3.4681381047889035 7.5769556807231551 Ga
atom 9.3111592383081554 3.4993236708132605 2.4977044872775536 Ga
atom 11.0551619528608818 0.8861386336656069 12.7280192790770155 Ga
atom 10.9229606702675301 0.7673439697281015 7.5176864894776729 Ga
atom 10.8585865810601696 0.9184978579941370 2.4642629489498735 Ga
atom 0.0142635527546524 14.4141491158931885 12.5905268424261649 Ga
atom 15.3176229058993325 14.6390368867048135 7.8409652445602047 Ga
atom 2.9298954144582479 3.5905670407956278 7.4982542157073286 Ga
atom 3.0321091634503401 3.7550221264433610 2.4638003129304491 Ga
atom 4.6356892748752259 0.8724456897653219 12.7677690487969979 Ga
atom 4.6514900905921692 0.9468105916666815 7.5918834808156630 Ga
atom 4.5556959852078140 0.9974134713642623 2.7049005909404706 Ga
atom 15.5543447170061064 3.6341234754621827 12.5522694452974584 Ga
atom 15.4778804868101396 3.4511205557193905 7.5965158063269111 Ga
atom 0.0234297432694405 3.7619558817727987 2.4794892029789648 Ga
atom 1.5760090368948187 0.8745215322021781 12.6051515010770530 Ga
atom 1.4648444295648342 0.9034006032584037 7.7509361585556471 Ga
atom 1.6868240683484612 1.0079129880479833 2.5457599533652338 Ga
atom 6.2269474806648653 3.7129135289495649 2.6995708378504526 Ga
atom 7.8221816183324222 0.7136328247542260 12.6532297779222844 Ga
atom 7.7402285588964457 0.8646127279956540 7.6118185746646692 Ga
atom 7.7122962118817648 0.8996367305278770 2.4883715697301230 Ga
atom 15.4598433639392479 8.9685901539253905 12.6457986726079188 Ga
atom 0.0777068321440378 9.0541827626906883 7.6928412108033566 Ga
atom 0.0578858606069262 9.0651500413772688 2.2875342581476334 Ga
atom 1.5572605095034839 6.3310026072639358 12.8151772516762126 Ga
atom 1.4604360669147838 6.2759296256370911 7.7591682602822845 Ga
atom 1.5340897802570885 6.2607372156000691 2.5710613501720823 Ga
atom 3.1360649776324530 3.6968717223908301 12.6944848074191192 Ga
atom 10.9898140978896741 11.7442976506814567 2.6143326018143251 Ga
atom 12.5973659601779513 8.9073974180193858 12.6336666270875657 Ga
atom 12.5472941509169988 9.0962559398638732 7.6836389262058535 Ga
atom 12.7033206229902120 9.1582025733782473 2.3825066766461380 Ga
atom 14.0980694988792585 6.1214431835436587 12.6811722287464903 Ga
atom 14.1019911265818862 6.2585064961298764 7.7091497761463783 Ga
atom 14.0580072574911341 6.3935348382144834 2.5065273123188070 Ga
atom 6.0942191045995155 14.4237028218475114 12.7607011200076439 Ga
atom 6.1730360282837689 14.4028766166584266 7.6081532880580474 Ga
atom 6.2326374489909684 14.2293175066646373 2.3380192864602969 Ga
atom 7.6803464514077353 11.5881753803933254 12.7782087944806424 Ga
atom 7.8138226105891251 11.7657087862839322 7.6680032668188005 Ga
atom 12.5533655991843656 14.4477175810693694 12.7393143101665398 Ga
atom 12.5800760741859019 14.4702789265263139 7.6606597494384996 Ga
atom 12.6032358677643099 14.5593351973095508 2.5278082851007002 Ga
atom 14.2452179576363029 11.8053861991175850 12.7277948777204823 Ga
atom 14.0630344456576832 11.7636348477801977 7.5507162696267898 Ga
atom 14.1388240572050474 11.9406517019060399 2.4367587442287202 Ga
atom 9.5445636969601413 14.3619198406304101 12.6790402937337490 Ga
atom 9.1549209191937333 14.5337031991739210 7.7115994900932510 Ga
atom 9.1837241448130005 14.5718863208558247 2.5115194276687975 Ga
atom 10.9591392191186774 11.7014359180807794 12.7698455907331940 Ga
atom 10.9343153608700039 11.8783019892632158 7.5849494617239523 Ga
atom 13.9392866694833515 1.0825872968434069 7.6144835025344308 Ga
atom 14.2000725558084095 0.9677581379728065 2.5697154528751214 Ga
atom 3.1381050642892219 14.3204703675444645 12.7822471636038966 Ga
atom 3.1652135860417023 14.5239794103017665 7.3834352468422075 Ga
atom 2.9914743609723216 14.4139361445293730 2.6749128704529017 Ga
atom 4.7940646105022520 11.5811856036515941 12.8690911444645444 Ga
atom 4.6587133320982153 11.9430972938479840 7.6145828069041563 Ga
atom 4.7142268254826929 11.6349409689089711 2.3537768946782509 Ga
atom 6.2960535923664800 8.9915473755189375 12.6505018873831894 Ga
atom 6.0372970003549442 9.0627060312949563 7.4985701302232348 Ga
atom 6.3083396864738370 8.9138153745840754 2.5307019538090314 Ga
atom 7.9193590794881095 11.6102307990849560 2.6836435432981558 Ga
atom 9.3882245479396058 9.1057249772016995 12.7008396124897960 Ga
atom 9.4256767638209791 9.0182774420796505 7.6761854399745815 Ga
atom 9.4964209021356236 9.0324166519114542 2.4929102438156954 Ga
atom 10.9178284786577287 6.2406624767578940 12.7474247079717262 Ga
atom 10.9838019927502657 6.4101865065257044 7.6548307614797979 Ga
atom 10.9566112087027978 6.2451965339809288 2.3962642197394795 Ga
atom 12.4126770637506283 3.5231410455728405 12.6515845161974312 Ga
atom 12.4078978904335528 3.7245994627962213 7.7281330439934530 Ga
atom 12.3579377608569363 3.5211549018321144 2.5300316858193477 Ga
atom 14.1356282983994070 0.7683986458805737 12.8532755538790795 Ga
atom 6.1651217421322393 7.3841207988487332 5.1515710679643902 Ga
atom 7.7405499552844592 4.4606035667127291 0.0859840959545350 Ga
atom 8.0441065058411247 4.4961927584646846 10.2304744908320338 Ga
atom 7.9580853116311996 4.5813899300715946 4.9463014446504010 Ga
atom 9.2545941898609101 1.7756317194037443 15.1633263396095792 Ga
atom 9.3858601918546203 1.6839292407612232 10.1586160016555951 Ga
atom 9.3219198169482844 1.8055215478836062 4.9279177430391048 Ga
atom 0.2493922385458919 12.6808771318495115 15.1547542554138275 Ga
atom 0.1070119835715379 12.7118897862452940 10.2878370851309988 Ga
atom 15.5885014075799226 12.7976335167946083 5.2027056848122228 Ga
atom 1.5780474490553351 9.7201704424034467 0.0375892823837325 Ga
atom 1.6697001408106138 9.8652198007819383 10.1121419594948208 Ga
atom 1.4490301458006702 15.2397375126046679 0.0273215556082567 Ga
atom 1.7222081707143302 15.3671807258613207 10.0888299270065627 Ga
atom 1.5744287619062576 15.6210324965317024 5.0335963943430233 Ga
atom 3.2358774651100242 12.5506916936891830 0.0558176737824968 Ga
atom 3.1222477676827260 12.6626667084427300 10.2087177873824615 Ga
atom 3.2360530814230981 12.8546922957166547 5.0176981985839646 Ga
atom 4.7414705767299994 9.7636674893618114 15.1223722898498298 Ga
atom 4.6738107004752321 9.9559597663170418 10.0810919942681583 Ga
atom 4.6181410154499449 10.0108892718272315 5.0122818830417932 Ga
atom 6.2354639078139229 7.1322898122485432 0.0750413541772860 Ga
atom 6.4472835627574039 7.1121226209398820 10.0619742063389896 Ga
atom 15.5979121243779755 7.2082484594730074 10.2445048796960130 Ga
atom 0.0662292870793208 7.4564395667484069 5.0999053509889221 Ga
atom 1.5689379704212831 4.3403980155997273 0.0134173404861446 Ga
atom 1.6010277898136347 4.4613432525667669 10.1270328383142143 Ga
atom 1.4941255674362399 4.6225839152024149 5.0783327345877511 Ga
atom 3.0520639951040951 1.6707957956509671 15.1593133016485631 Ga
atom 3.1733666632800888 2.0295330493313064 10.1789350998980002 Ga
atom 2.9926767269827206 1.8675304085179045 5.1577478035081104 Ga
atom 0.0024490547136752 1.8043694174476108 15.0673837172719036 Ga
atom 15.5920340356059768 1.7827390698333501 10.1580457242298365 Ga
atom 15.5320567245202366 1.8947148719703699 5.0276224194781998 Ga
atom 1.6309274306598827 10.0930863784434894 5.0751205519124980 Ga
atom 3.2202033915606028 7.1518922450293205 0.0890821875970888 Ga
atom 3.1796541430552754 7.1719551188409447 10.1429097444936254 Ga
atom 3.2039552560301567 7.1695696315797317 5.1582322971109482 Ga
atom 4.7011011877174962 4.4662754577788135 15.1478026144286506 Ga
atom 4.7525256773527609 4.4868565437120411 10.1961316474604402 Ga
atom 4.6074858755412267 4.6124275139495410 5.1392787693942958 Ga
atom 6.1593688967571127 1.8580615619442247 0.0440075226816702 Ga
atom 6.2606635685099672 1.6899126631219241 10.1022254598907715 Ga
atom 6.1861340663363684 1.7738738255925079 5.1835148718299759 Ga
atom 15.5388283887621110 7.0962487286747225 0.0743951839494440 Ga
atom 14.0717222358904124 9.9373650991450813 5.0439108886841026 Ga
atom 7.9446640599320215 15.3396185090134729 15.1706735691097379 Ga
atom 7.7594758504577515 15.1582112150989339 10.1033009699460283 Ga
atom 7.7520664351780990 15.4964573700546282 5.0222821316570325 Ga
atom 9.3995077815887207 12.6434383999743343 0.1908315984149121 Ga
atom 9.3010256759386483 12.5825196410954874 10.1981139172804163 Ga
atom 9.2674005883160930 12.7608610410667840 5.1563371159663802 Ga
atom 10.9953088818475635 9.8944301056987030 15.0310355696606059 Ga
atom 10.9778822823400901 10.0614840546126683 10.3495482323973995 Ga
atom 10.9756365293282254 9.9596952431406773 5.0657721316712090 Ga
atom 12.4106732285349821 7.2372410246393111 15.0930455202697349 Ga
atom 12.6589127126557113 7.2125704957606560 10.1409853008002599 Ga
atom 14.2007168527621594 15.2871628088124574 0.0640760784185896 Ga
atom 14.0055535776856193 15.3687589698961702 10.1592481552421496 Ga
atom 14.0493685892673916 15.3063578397717741 5.1585402883910021 Ga
atom 11.0112279248446026 15.3395642335888454 0.0433703531914183 Ga
atom 10.9628339134271933 15.3092622786253436 10.1014917990863733 Ga
atom 10.8766737895922212 15.2742088178825828 5.1199777824713752 Ga
atom 12.4367424902057433 12.6295357698893369 15.2426493200568771 Ga
atom 12.5429058746142612 12.5743708095627102 10.2456904520632293 Ga
atom 12.4868818180198868 12.6756625827644545 5.1210787393956601 Ga
atom 14.0254446827547312 9.8908112642633625 14.9973642724850365 Ga
atom 14.0155573336610146 10.0426309723129243 10.2542502232897874 Ga
atom 7.7692824652776720 9.7889032958525473 10.0598063722266655 Ga
atom 7.7853406810915464 9.8332890125353938 5.2356651635329037 Ga
atom 9.3349783934860149 7.1944263999075737 0.1040569000326354 Ga
atom 9.5203194469017554 7.1452111338845006 10.2666553190273167 Ga
atom 9.4485328601632279 7.3382617604390781 4.9154814105283284 Ga
atom 10.9740187772229678 4.2648127096538504 15.1312097451171148 Ga
atom 11.0092986609240207 4.4700288522179354 10.0727816169926623 Ga
atom 11.0021546588907864 4.5143277429438875 4.9636146334158688 Ga
atom 12.6693964152299454 1.6866511972432745 0.0786932210990324 Ga
atom 12.4614427948905035 1.8502086486564395 10.1889847019844435 Ga
atom 12.3820022176009914 1.7548578876376411 5.1063409309085506 Ga
atom 12.5208526693285691 7.2892131956543427 5.0483017924688891 Ga
atom 13.9060953975158128 4.5262106887793880 15.1746663539148052 Ga
atom 14.0177883242096453 4.4655513318960844 10.0294259628941909 Ga
atom 14.0925082267836181 4.5902489377234401 5.0046890686596806 Ga
atom 4.6896362856679481 15.3901587217520124 0.1851349472588812 Ga
atom 4.7162573696860894 15.3768056892321212 10.1632452474912505 Ga
atom 7.8675794089694060 9.9141882166876751 0.0628578035444440 Ga
atom 6.0906942156383455 12.6874439117145670 5.1024400043453317 Ga
atom 6.3212156978578724 12.6890572337742640 10.2951478678448698 Ga
atom 6.3204763204117311 12.5123472363849046 0.0711346229931925 Ga
atom 4.8018116709998884 15.5554017873172423 5.1305271842612195 Ga
atom 3.1078250697709309 8.9450310441152894 9.5353564531392205 N
atom 3.1589133174759203 8.9511714718805049 14.6392307027439834 N
atom 1.7026445116438067 11.8036667271668811 4.4410933290361658 N
atom 1.5557131938046773 11.7018860556255326 9.6266911954678598 N
atom 1.7097449183062148 11.7067854613778053 14.6999021565874983 N
atom 0.0071841298743269 14.5119169510446451 4.4855529404022008 N
atom 3.1498998018372308 8.8915370472890629 4.4708734460428445 N
atom 4.5913381761556726 6.1645293910339021 14.6180634581555804 N
atom 4.7110784183103753 6.1885777492333744 9.6041872604657836 N
atom 4.8744344698253030 6.3652923711417895 4.4888029037072963 N
atom 6.2516313837823896 3.6145626892507221 14.6012757827066508 N
atom 6.3876390201269269 3.5780884775066837 9.5497162092257160 N
atom 7.6268198082389729 6.1669339933938536 14.7602667341978009 N
atom 8.0558185276563563 6.2553280940801601 9.4792538788513241 N
atom 7.7484887261531901 6.3192361513864839 4.5495708755237576 N
atom 9.0978509497440285 3.6614583588044014 14.5476271270636559 N
atom 9.3733237444506781 3.4711459998548766 9.4835799937747840 N
atom 9.5438105168648555 3.5991762644394600 4.2773027446414549 N
atom 10.9418092765376063 0.7819957790721136 14.7642240144019734 N
atom 10.8801694294381974 0.8608953611701746 9.3982328282032892 N
atom 10.8163670095235389 0.8150223041182156 4.4001731540798259 N
atom 0.0084746873598066 14.3791588098310985 14.6105106041694643 N
atom 0.1021436126663844 14.4703656509153120 9.6168416242998820 N
atom 3.2147830617180997 3.6720710760796322 9.4378134972103886 N
atom 3.0349532911153880 3.6690473375850599 4.3686473345076102 N
atom 4.7787629960869973 0.7941591267029224 14.6416555454715080 N
atom 4.7359888756584754 0.9065692110192074 9.4628880144334921 N
atom 4.6322369374030625 1.1522529272557986 4.7013143787146952 N
atom 15.4340957337742495 3.6678275463116385 14.5341729219907467 N
atom 0.0574217302542171 3.6550375706441769 9.5786174240403508 N
atom 15.5958680166958299 3.7233172351863368 4.4188866527757753 N
atom 1.5266031778565585 0.7897912118902500 14.5224333473943865 N
atom 1.6170599060978101 1.0496392731456783 9.5608889309970628 N
atom 1.5742350179229498 1.0184845861241318 4.4640618619491024 N
atom 6.2307017625272190 3.5389813409019704 4.4488582961764171 N
atom 7.7334264211304049 0.8265713780666735 14.5571803054283730 N
atom 7.8837462199341939 0.8306046805619037 9.5059672894566898 N
atom 7.7872345249648038 1.0601873257432686 4.4534822375559857 N
atom 0.0305692896132969 8.8579242065171471 14.5002325015403102 N
atom 15.5099642964078068 8.9070676915818670 9.5229442738198689 N
atom 0.1111634014377313 9.1596348099984013 4.2794086628363521 N
atom 1.4780994219887991 6.1958983683110356 14.7522866595229001 N
atom 1.4920413309728575 6.2014887512074344 9.5759709947363358 N
atom 1.6366064313062603 6.5545045314085613 4.3997318114891533 N
atom 3.2115918374127128 3.4806456853035046 14.6964033196802504 N
atom 10.8834804303274755 11.8725034517705801 4.4236451048438798 N
atom 12.4870558682880262 8.9215559766656636 14.6038289818558962 N
atom 12.4480428800759544 9.0898053779086503 9.5369990132692148 N
atom 12.6411650214783879 9.0707495876132285 4.4524962631801737 N
atom 14.0015732093703118 6.2419354576866439 14.4439531115266018 N
atom 14.0777801263716125 6.3376146623366436 9.6114719861562197 N
atom 14.1874620360414472 6.3813546133828014 4.4429513844950810 N
atom 6.2719529694875416 14.3786091520197949 14.6814396738801545 N
atom 6.1998718536392063 14.4059683657766087 9.5245789098478149 N
atom 6.3028117871445142 14.4474195117868991 4.2790669143506195 N
atom 7.9717465360995607 11.7665219483376369 14.6527672613743363 N
atom 7.7281718487521962 11.6723016142301805 9.5416672360356021 N
atom 12.5145207503378035 14.4556456434428373 14.5532224565998298 N
atom 12.4892869283090864 14.4288120366463755 9.6514085630596096 N
atom 12.4756458578453486 14.5112013022209396 4.5907174196861051 N
atom 14.1563909617977721 11.7588954994554538 14.7196757591189265 N
atom 14.1053155581428662 11.8859800543237615 9.5535295577993686 N
atom 14.0631016055843610 11.7699540312611894 4.5121231838622062 N
atom 9.5408810464531104 14.3543711080519181 14.6176734930278531 N
atom 9.3302536237602673 14.3039725752446216 9.6596389981371313 N
atom 9.2413429203571926 14.5299502415351665 4.3751909982249240 N
atom 11.0155071781248637 11.6096193443986415 14.6763683702926464 N
atom 10.9114887903918660 11.8043222626723754 9.5790991255806102 N
atom 13.9487901604814084 0.8643472832331733 9.5016391178853183 N
atom 14.0474366401871791 0.9287108214620110 4.5549640219445191 N
atom 3.1425391813507622 14.4426110212590117 14.7617409974748313 N
atom 3.2127237418670602 14.4146967168578488 9.4218811098232500 N
atom 3.0834353519101980 14.6487577102296882 4.5544424487127912 N
atom 4.7895470759335144 11.5856682420085573 14.8088429070069623 N
atom 4.7644728601327637 11.8221457937995602 9.5672644816805139 N
atom 4.7060573410677806 11.7852005075480388 4.4073392302562144 N
atom 6.2886323290818069 8.9253523711192049 14.4883520725950152 N
atom 6.1828822800314569 8.9787951236184931 9.4388445236726319 N
atom 6.2697604903944555 8.9742896772330880 4.4679041781704090 N
atom 7.7796004371299556 11.6738550736179025 4.5764606604950320 N
atom 9.4306229677310647 8.9465602641305573 14.6502773785381031 N
atom 9.4399510016510195 8.9061237523170487 9.5236892848224048 N
atom 9.4070270451663731 9.1358037261679534 4.3877485744345242 N
atom 10.7924244758103853 6.1704962735069291 14.5270589402193533 N
atom 11.1002802421505002 6.3038903754728235 9.4956414851177282 N
atom 11.1289589985530046 6.2936408248547604 4.3068006388676343 N
atom 12.4947167500083687 3.3308897961720327 14.4987102582736664 N
atom 12.5062821499856316 3.5762519342381274 9.5867821867304563 N
atom 12.4140060696620758 3.5955848060322309 4.4316238582288277 N
atom 14.1047850532609136 0.7099011251168512 14.6686181789307426 N
atom 6.2851591814995693 7.1931650186018778 1.8653087245828581 N
atom 7.8879686318576452 4.4372815408125641 12.0268269668799039 N
atom 7.7149305845726355 4.5441342409160157 6.8928149636579672 N
atom 7.8018977496461916 4.4176310583226881 2.0945096692350891 N
atom 9.3657203288311166 1.5478622151717241 12.1148525895813091 N
atom 9.1977740991760157 1.6504093126076453 7.0044499322554499 N
atom 9.2565885038309350 1.6636489306341220 1.8466151190007227 N
atom 0.2039669597545087 12.5783209126752222 12.1914312666406417 N
atom 15.5238441460117436 12.7641193334214904 7.0562593243526921 N
atom 15.6133893986332293 12.7334818270341437 1.8423888562242441 N
atom 1.4743321212240184 9.8189454717682398 12.0985186330128780 N
atom 1.5586693623431500 10.0952921412365697 6.9305214597470144 N
atom 1.6069293111576870 15.2363839304120248 12.1096776898814991 N
atom 1.4823871622677220 15.4919437382557579 7.0339961405012508 N
atom 1.6378854556398614 15.4016901153463301 1.9954904189312279 N
atom 3.2271248916902660 12.4239025068061846 12.1368014607960255 N
atom 2.8901572359991579 12.8020792810608430 6.9863450961709370 N
atom 3.0439397692371983 12.6773424895028857 1.8922927034066783 N
atom 4.6466231493465440 9.7741155304077445 12.0122290663838989 N
atom 4.5492265006162436 10.0951702476370215 6.9643712819925412 N
atom 4.7195108477667542 9.8771045641062525 1.9570397906097354 N
atom 6.1905490785881412 7.1646560432708455 11.9672142570131399 N
atom 6.3176681184656696 7.3104075001349687 7.0702394750952422 N
atom 15.6141079094233621 7.1753693937275047 7.0025960719917046 N
atom 15.6110445321606885 7.2105458000914728 2.0002099183105235 N
atom 1.5358545391911447 4.4363981568431283 12.0679466624560892 N
atom 1.4974097418478862 4.4758915543017572 6.8704280429911133 N
atom 1.6451649199240603 4.5119383903324071 1.8288902735108703 N
atom 3.0346697532143492 1.8498470729144119 12.1244053623893802 N
atom 3.0127086615436225 1.7146358268740765 7.0178862333047425 N
atom 3.1320650984736651 2.0016466928992935 2.0127151756073389 N
atom 0.0083796966752757 1.6767466525448551 12.0673888820346384 N
atom 15.5544738574393620 1.8282184012172848 7.0571114171522247 N
atom 0.1401801275167261 1.8289493889098671 1.7733277671381127 N
atom 1.7257751754570265 9.8827116394018937 1.9486857118332648 N
atom 3.0077680011269146 6.9924992619918793 11.9530946004577796 N
atom 3.0446372391647030 7.3135002740608623 7.1328513086283634 N
atom 3.2460458968830506 7.1637633507920953 2.0703848427328069 N
atom 4.8435818668719550 4.4364960514317078 12.1470260845143514 N
atom 4.5952241534817686 4.4577805391770120 7.0633421560254019 N
atom 4.7394752998894827 4.6708815967309496 1.8419004186502972 N
atom 6.2514906512423609 1.6444831330331560 12.2027383328651293 N
atom 6.2731337048469653 1.7561396815895203 7.0381702432786764 N
atom 6.1712426841164651 1.9274738517164967 1.9253453643056175 N
atom 15.5735232978065490 7.2114730670723004 12.1208998171707094 N
atom 14.1753759265896573 10.0897217460676565 1.6778704324583376 N
atom 7.8158446303995888 15.2104680754426997 12.0877594700807744 N
atom 7.6644452824030180 15.4324273111736794 6.8553908563909038 N
atom 7.6149715370789854 15.3890896670394515 1.7674495903592362 N
atom 9.1951013604138758 12.5542217021304268 12.0045326732731787 N
atom 9.3511008113780161 12.7090092405221462 7.0194512549635784 N
atom 9.4892057529337475 12.6038213987159349 2.0290935072629201 N
atom 10.9393239881190958 9.9179783896533973 12.0976171395504224 N
atom 11.0164288928735239 10.1035690639397373 6.9691709076383113 N
atom 10.9522393733706238 9.9746776270540334 1.8953400746285902 N
atom 12.5406721184011172 7.1151598786693171 12.0215238362253540 N
atom 12.4949949387753989 7.2973506666310257 7.1464718750177774 N
atom 14.0994759679442971 15.3746985605511544 12.0307899292106661 N
atom 13.8922077617304591 15.4893424365712278 7.0106161676889105 N
atom 14.1583175076120007 15.4086257189301552 1.9738383984264445 N
atom 10.9510715233539635 15.3067931027848267 12.0710590435315606 N
atom 10.8165284060544131 15.1971005039810336 7.0426844671941486 N
atom 10.8593503413474117 15.3541594407977087 1.9437163824863781 N
atom 12.5696168148178753 12.6413336412237651 12.2219250424965082 N
atom 12.6329055329931972 12.6819081180360982 7.1790540901467912 N
atom 12.6157994486409599 12.5141057506311011 1.9962123868116726 N
atom 14.0416479209768852 9.9029189723845139 12.0841396786373316 N
atom 13.9742920106697230 10.0245508055689854 6.8971511432788484 N
atom 7.7699168889316956 9.8702158827000854 7.0490661547700197 N
atom 7.7673989326192592 9.8010335499245826 1.8835596176392326 N
atom 9.4241607404127503 7.2195809885598443 12.1852289279391250 N
atom 9.3269060256860907 7.3559493003651619 6.9150622519431559 N
atom 9.4324069898295697 7.1412272819900879 1.9598149389402149 N
atom 10.9666046763824561 4.3676902737719017 12.0891763695776930 N
atom 10.8959065727876414 4.6765760415155588 7.0520436900505308 N
atom 10.7693242818415555 4.3549989526249444 1.7927841896534973 N
atom 12.5679819428350132 1.7869494121700455 12.0137808595173752 N
atom 12.2955341402276481 1.9524450209874862 7.1119061554564462 N
atom 12.4972568646338154 1.8178009087093974 2.1079348661393467 N
atom 12.3591354601749686 7.1541804951847769 1.7781983124359846 N
atom 14.0340452853034634 4.3913937553490463 11.9362356899889974 N
atom 13.9325790569173780 4.5712041039035274 6.9940665543786302 N
atom 13.8891364087183522 4.6573362062563257 2.0577367234682957 N
atom 4.6964312722615391 15.2529446930904662 12.0702080482524874 N
atom 4.7108234508873732 15.3940056921003645 6.9835524236575610 N
atom 4.6300039472969239 15.2192458924151346 2.0637284619764467 N
atom 6.1483005841022731 12.6259246760541775 12.1755418041369250 N
atom 6.2479502654895267 12.6705694727693476 6.9738968590558148 N
atom 6.3295531123638469 12.5597984610700095 1.8941290105950916 N
atom 7.8181996728343961 9.9027024812368598 12.0860760905688007 N
