#===============================================================================
# Created using the Atomic Simulation Environment (ASE)

# Thu May 11 08:59:10 2023

#=======================================================
lattice_vector 15.6273739999999997 0.0000000000000000 0.0000000000000000 
lattice_vector 0.0000000000000000 16.2404434541285205 0.0000000000000000 
lattice_vector 0.0000000000000000 0.0000000000000000 15.2445761999999903 
atom 15.6182508979229322 14.4533223539216138 2.5367067606816520 Ga
atom 1.6243697262844006 11.7335960890542150 12.7299987980924900 Ga
atom 1.5432639154079884 11.7606660810234906 7.7019799124469515 Ga
atom 1.5034975409927556 11.7131380219094527 2.5070349047574774 Ga
atom 3.1400813520577091 8.9820298610482254 12.7052909400259093 Ga
atom 3.1006587186219532 8.9697901021325901 7.5902289645308745 Ga
atom 3.0520131732171878 8.9665578529314054 2.4475049202755641 Ga
atom 4.7328870948818107 6.3507589985085007 12.6261838826342121 Ga
atom 4.7172575593957964 6.3084584542982087 7.5655909771832981 Ga
atom 4.5765167682774948 6.2669810261444132 2.5584183317697509 Ga
atom 6.1545654810621508 3.6207640643294789 12.7349307060975185 Ga
atom 6.1644616698266974 3.5967320136494156 7.6370410067208603 Ga
atom 7.8379386765932937 6.2657210247247219 12.7796376171054380 Ga
atom 7.7180909366712598 6.3426059052433290 7.5441252459410135 Ga
atom 7.8070199947904646 6.3325337179502164 2.6569021959693564 Ga
atom 9.3051590115213472 3.6160122342724121 12.6578656028031311 Ga
atom 9.2981543807039948 3.6403179324948152 7.5441395178033392 Ga
atom 9.3238349619582426 3.6057987986815299 2.5516244709692293 Ga
atom 11.0031095914556598 0.9433385437522003 12.6421500456779992 Ga
atom 10.9683087705134010 0.9174835715780051 7.6101160796753842 Ga
atom 10.9764453351751889 0.9498301860829125 2.4322623551145983 Ga
atom 0.1219298538995453 14.3776429470193037 12.7609352593439560 Ga
atom 0.0093015645795449 14.4239033566324721 7.5537490675347918 Ga
atom 3.0515851048527605 3.5988220882792010 7.6755366909333747 Ga
atom 3.0973354222184213 3.5753125062216049 2.5644312929141968 Ga
atom 4.7346536607055132 0.8125089835760836 12.6944726137500155 Ga
atom 4.7754493089401100 0.8713880052337537 7.6575631968083249 Ga
atom 4.7289998154536894 0.8091820812722966 2.5639432129976734 Ga
atom 15.5692964241851506 3.5954567788847531 12.7494298989419423 Ga
atom 15.5038809114997669 3.6365629655091443 7.7080196244037271 Ga
atom 15.5148437837524718 3.5684456779563130 2.6111948964522234 Ga
atom 1.5843529982698783 0.9024960814371505 12.7462235479668085 Ga
atom 1.6111798743614318 0.8894948171399345 7.6354573373986820 Ga
atom 1.6065537821770146 0.9654189337412405 2.5133152922879205 Ga
atom 6.2052359290248367 3.5772185101831782 2.5482359272504564 Ga
atom 7.8746297696046446 0.9467016747016349 12.6423262117514703 Ga
atom 7.8986467147984252 0.8740323377590133 7.6453470230848657 Ga
atom 7.8850385826265637 0.9340031341404909 2.4884270494835206 Ga
atom 0.0060876553020803 9.0663977560282376 12.6257463991872729 Ga
atom 0.1197344147206900 8.8955965001465049 7.4806505901050340 Ga
atom 15.5491288689773448 9.1442861519934429 2.5191232601948892 Ga
atom 1.4915277332376016 6.3132800419703718 12.7473118395810232 Ga
atom 1.6800490340436929 6.2410072628429978 7.6681072169459883 Ga
atom 1.5468725811554667 6.3018186418070972 2.5788615613671104 Ga
atom 3.1532678510485113 3.6235996647726676 12.7321800332307866 Ga
atom 10.9507777648266860 11.7304856987735473 2.6140040361217478 Ga
atom 12.4762729604561180 9.0654048797861133 12.6596461141953682 Ga
atom 12.4223086984950637 8.9485632652329912 7.6604492097513122 Ga
atom 12.4698227211219006 8.9958718365528654 2.5713981674316395 Ga
atom 14.0777986104500528 6.3325622047056616 12.5839955845816913 Ga
atom 14.1026620733448702 6.3855530714613957 7.6208995377356734 Ga
atom 13.9929297027573369 6.2735885769432835 2.4509980857441951 Ga
atom 6.3404281665153794 14.4175381912488891 12.6157224120766802 Ga
atom 6.2723627293770816 14.3491756182376129 7.6246397878641288 Ga
atom 6.2946413713823377 14.4380774116516690 2.5124863926311320 Ga
atom 7.9176289218948197 11.7429476338008207 12.6216049919039683 Ga
atom 7.7975366825496959 11.6533080732339336 7.5437660949295902 Ga
atom 12.5887186184559674 14.4335057844131427 12.6561137697292985 Ga
atom 12.5930638189999389 14.4142271555117851 7.6543318000370721 Ga
atom 12.4720017604333115 14.4584714138454018 2.4806066486916043 Ga
atom 14.1076339660556975 11.6695302327057107 12.7078307452016279 Ga
atom 14.2039353981984480 11.6103441406581300 7.6020892116024887 Ga
atom 14.0611996967709363 11.7359567383556307 2.6175061010727312 Ga
atom 9.4242745778855070 14.4314812040813152 12.7144093979449178 Ga
atom 9.4067203743655234 14.3819700677253213 7.6194446106629368 Ga
atom 9.3129700470377710 14.4368045273647638 2.4427031674642872 Ga
atom 10.9231693685752482 11.7263082945058876 12.7429259425269699 Ga
atom 11.0552934384255508 11.7292956690550252 7.7173954021957467 Ga
atom 14.0583155391487260 0.9018546423466821 7.5694165913429519 Ga
atom 14.1237907063593724 0.9832680870405835 2.5912566403694015 Ga
atom 3.2356984626481751 14.4096764627453542 12.7903729262814529 Ga
atom 3.0551770787626582 14.4225700080796564 7.6752756436090364 Ga
atom 3.0812736523499513 14.4161947870615617 2.6429108987815781 Ga
atom 4.7682467106537869 11.7770193006740236 12.5890321053630103 Ga
atom 4.6947551655764679 11.6641729637628213 7.6528965168485366 Ga
atom 4.6333608538692443 11.8013990216406075 2.5960145707626201 Ga
atom 6.2579776931254845 8.9806255111062789 12.7537332869783260 Ga
atom 6.2358380656155141 9.0687343660798998 7.7030797014876065 Ga
atom 6.2100151907309638 9.0085112865174253 2.5830326536215411 Ga
atom 7.7029455044378778 11.8260549201484988 2.5726678030032009 Ga
atom 9.3835228726350088 9.0217018858263334 12.6633353254154777 Ga
atom 9.3225138965705607 9.0049128619439625 7.6335279053831719 Ga
atom 9.3924388202099749 9.0932501565387014 2.5493101200372799 Ga
atom 10.8962689137516033 6.3353811717581223 12.7464093692837785 Ga
atom 10.8216227541365448 6.2503770580563893 7.6051163369945387 Ga
atom 10.9203905160554005 6.2692599313759070 2.4347681981287814 Ga
atom 12.5286920310798315 3.6311564481739009 12.7753235258760380 Ga
atom 12.4714620124131450 3.6845126498282705 7.5372788697623179 Ga
atom 12.4423338267146502 3.6990901017611213 2.4954344878436014 Ga
atom 14.0432520294432486 0.9663738306948909 12.8246621083030359 Ga
atom 6.1679898474605857 7.2382676533931161 5.1076068351151971 Ga
atom 7.7570117378253336 4.4986631581575756 15.1867991195401579 Ga
atom 7.8053635888264683 4.6201387503959905 10.1428219742609595 Ga
atom 7.7766922517246471 4.4596098456861002 5.1022214483785477 Ga
atom 9.4675908110964020 1.8798023642448860 15.1191126843316912 Ga
atom 9.4845740906139344 1.8065138018515379 10.1495132512686155 Ga
atom 9.3973967659848956 1.8176934907609927 5.0459047470723553 Ga
atom 0.0175309213895341 12.6159982274911080 0.0155403878509002 Ga
atom 15.5974827971812218 12.6063915996930263 10.1594870815407905 Ga
atom 15.5861784674865635 12.4920135435195174 4.9720152366462838 Ga
atom 1.6152478531505887 9.9172689468769111 0.0041840360885492 Ga
atom 1.5864448142262459 9.9971487923680389 10.1960676100457412 Ga
atom 1.5711512553859874 15.3858765396702939 15.2235783221129015 Ga
atom 1.6124993743769371 15.2680587982270914 10.1296870594691590 Ga
atom 1.5542590518767323 15.3059790367964847 5.0777545363157257 Ga
atom 3.0876171452901993 12.6737766730109982 15.2422554196065931 Ga
atom 3.2596043616080661 12.6517341058426904 10.2399670796054725 Ga
atom 3.0396793722769226 12.5493084625079216 5.1329502948490795 Ga
atom 4.6428703978354200 9.9516202049770932 15.2256871725887688 Ga
atom 4.6481640192269289 9.8433847498503280 10.2306995131887266 Ga
atom 4.7030463923337393 9.8648816728872557 5.0745435642865102 Ga
atom 6.2563750399394173 7.1673219405575361 0.0293659403782397 Ga
atom 6.2861757014823993 7.2625191035698409 10.1660084472354093 Ga
atom 0.1170546183828186 7.2084542988200946 10.1698916595788269 Ga
atom 15.5545848914574893 7.1328728020421339 5.1200253611520949 Ga
atom 1.5111026315609817 4.5257798145633119 0.0537678258106921 Ga
atom 1.5566518188100353 4.3882348726121503 10.2090586922924977 Ga
atom 1.5493202089233082 4.4465294308256977 5.1216199832984453 Ga
atom 3.1793192019024499 1.8664474377719489 15.2203019759007621 Ga
atom 3.2127809287235447 1.7458626740589107 10.1592285766186059 Ga
atom 3.0974303513734487 1.7384182936251418 5.0787286793835715 Ga
atom 15.6213344278240847 1.9032733349541402 0.0425166491318007 Ga
atom 0.0388904700018489 1.8395866623559853 10.1670473669105323 Ga
atom 15.6036032944153842 1.8244504833627382 5.1424526830568409 Ga
atom 1.6036832406878030 9.9289722510292879 5.0971963500715791 Ga
atom 3.1412053839206391 7.1158937207526831 15.2165288913856145 Ga
atom 3.0625748823272478 7.1897281460896156 10.1676073693948243 Ga
atom 2.9795006910456103 7.1865959423641037 5.0744725570165112 Ga
atom 4.6750977503169180 4.5491202757953930 15.1983951863846407 Ga
atom 4.6415978080596227 4.5474950908107177 10.1088880111180188 Ga
atom 4.7724018807703086 4.4877878353804013 5.0917356200429564 Ga
atom 6.2080585649454800 1.8281416418786414 15.2275902818855631 Ga
atom 6.3263572348298558 1.7929301804989630 10.2044905664259833 Ga
atom 6.2335916938976288 1.7932328889334519 5.0845113531031068 Ga
atom 0.0016699606662556 7.3589851045110821 15.2160165467896586 Ga
atom 14.0698877237730695 9.8263312658884097 5.0418685906371392 Ga
atom 7.8013263251730249 15.3922413536079201 15.2125247113285909 Ga
atom 7.8390571021781508 15.2449973874667073 10.0645573800570691 Ga
atom 7.7748714112768651 15.3954141771375781 5.1983249802594607 Ga
atom 9.3594497448207381 12.6520364567408912 0.0385395550380466 Ga
atom 9.3655677142166720 12.6004181122810177 10.1704693312597421 Ga
atom 9.3921864966498614 12.6989777428269743 5.1399811222460823 Ga
atom 10.9108203528625687 9.8864868454037556 0.0603122123709293 Ga
atom 11.0504209069860160 9.9325289711209859 10.1504606238484119 Ga
atom 10.8847072919109440 9.9161074564818765 5.1314223123620115 Ga
atom 12.5161582204230069 7.2516513517702297 15.1479007138986290 Ga
atom 12.5738072126526603 7.2243619094296410 10.2046078798076536 Ga
atom 14.0680251053138257 15.3358605031194344 15.2055962587162838 Ga
atom 14.0686311881153223 15.4621961981166987 10.1904406344458209 Ga
atom 14.0868223614514374 15.2994662787496782 5.1205063363802239 Ga
atom 10.9530903886544344 15.4432001928956026 15.1726543554972313 Ga
atom 10.9577805977212215 15.4004919435971157 10.1463989544808815 Ga
atom 10.9211889585013111 15.3239347336030516 5.0011659804493540 Ga
atom 12.4873900498487416 12.6296545803745168 15.2434284194323197 Ga
atom 12.5423034974285095 12.6663018331456243 10.2323874146799803 Ga
atom 12.4848669909644396 12.6587151574185182 5.1836082375468351 Ga
atom 14.1153683890871324 10.0120564443266318 15.1635136247609097 Ga
atom 14.0756295663262581 9.8483158067974088 9.9271920287424891 Ga
atom 7.8166901892151150 9.8455363104938733 10.2061508627352833 Ga
atom 7.8630411500822195 9.9960670187371630 5.0105044709261692 Ga
atom 9.4317135736524129 7.2665039325305827 0.0309423898601363 Ga
atom 9.3723368719966906 7.1905688058042756 10.1075837365243650 Ga
atom 9.3033164942451076 7.2544959894774443 5.1232654443253987 Ga
atom 10.9445085395402160 4.5749818796978321 15.1624195383382965 Ga
atom 10.9236358015372854 4.5270341562595924 10.1743667733767342 Ga
atom 10.8995679433022818 4.5194183081545631 5.0629975798786813 Ga
atom 12.4330691689950150 1.8745015545011043 0.0990382384144158 Ga
atom 12.6525949100784736 1.8576335890395226 10.1943956585708619 Ga
atom 12.4968464900440193 1.8181686227271108 5.1214691818902178 Ga
atom 12.3543319162336473 7.1223295041604731 5.0460331273125059 Ga
atom 14.0697959445270229 4.5390988900393774 15.2199134674381753 Ga
atom 14.0768372845772323 4.5614379628224198 10.1391669645760736 Ga
atom 14.0230090365296984 4.5152453504852401 5.0283417598262048 Ga
atom 4.7536794020520405 15.3701691988654954 15.2413557991363682 Ga
atom 4.7454577246142726 15.3971045298016715 10.1878700644171030 Ga
atom 7.7953625646573199 10.0318725823468178 0.0332110570891727 Ga
atom 6.1918184666520872 12.6268426440708499 5.1094876443430186 Ga
atom 6.2880460116582402 12.5960047049059032 10.1416641074042140 Ga
atom 6.1477016533978990 12.6094282867353886 15.1816806588399515 Ga
atom 4.6829475794183075 15.2947186528313619 5.1264983364593872 Ga
atom 3.1096420291816322 8.8843179941717931 9.5602012078453686 N
atom 3.0726234149294793 8.8876604767326661 14.7547664166385939 N
atom 1.5995086558405271 11.6777805000518633 4.3917570735925002 N
atom 1.5839078735774994 11.8448869349331360 9.5804735654786963 N
atom 1.6341335776973815 11.7314504842504714 14.6641500621641860 N
atom 15.6155382442911144 14.3874307990868981 4.3606560751310655 N
atom 3.0273109883478981 8.9910917217073205 4.4185293958799265 N
atom 4.6914484974728952 6.3318637767189196 14.5568391834936541 N
atom 4.8111329994025942 6.3837162163683683 9.4574373917595089 N
atom 4.6478737781261810 6.3229378717434024 4.5437581174498964 N
atom 6.1489071152870389 3.6765702763450112 14.6393899126563074 N
atom 6.2690603778842577 3.6897577939977815 9.5359852309181896 N
atom 7.8323793849717944 6.4074282730719681 14.6081346838892152 N
atom 7.8558361332919331 6.3419611036887344 9.5020284974389941 N
atom 7.6512430037785224 6.3626845619750689 4.4655264265733976 N
atom 9.3969350103396536 3.5887683873761738 14.5564499972370882 N
atom 9.3770451141715316 3.6163502829080461 9.6006872199182958 N
atom 9.3787271560537064 3.6064355485430588 4.4762180499241273 N
atom 10.9800953605610427 0.9108963563926722 14.5389369740618406 N
atom 10.9659884720658720 0.8860541068663446 9.5489069077872397 N
atom 10.9510157252353206 0.8937387346749875 4.4118788095962786 N
atom 0.0958870703195864 14.4541862536039929 14.6295328420771558 N
atom 15.5669718832939221 14.4285615480348675 9.5986756079629245 N
atom 3.0342683098777328 3.6041688458602703 9.5577375405999430 N
atom 3.1827830232882302 3.6184539737265173 4.4507133686542568 N
atom 4.6530213127588169 0.9446530164600035 14.6075232409455964 N
atom 4.8318932213991408 0.9379631033168790 9.5621377293292404 N
atom 4.7011914380536268 0.8372984425618273 4.4044749148151734 N
atom 0.0248665114049568 3.6936742211701907 14.6356529360758856 N
atom 15.4861120511190702 3.6281736251746910 9.5970144340218457 N
atom 0.0404568434087366 3.6132531945183355 4.4406075344868068 N
atom 1.5195096723417427 0.9340784093619625 14.7053735359494375 N
atom 1.6095818279306588 0.8809313795361855 9.5099006539084368 N
atom 1.6268537199748203 0.9091396622930386 4.4223889657180546 N
atom 6.2555238291301247 3.5011136406405603 4.5018488141711845 N
atom 7.8636466400495939 0.9767336928711892 14.5857584990114830 N
atom 7.9197216424761123 0.8501581391296140 9.6561993317005150 N
atom 7.7791228969652790 0.8283336268314259 4.4273551636202919 N
atom 15.5259244082690486 9.0730061231237649 14.5241436135469488 N
atom 0.0565924424471857 9.0635179739901801 9.5129494405174455 N
atom 0.0087419105861857 8.9561579775869049 4.4845746775541029 N
atom 1.4048714320192186 6.3374363066863291 14.6271512371442896 N
atom 1.5862483796831137 6.2466724075691067 9.4796437827833593 N
atom 1.4875094276381935 6.2472026846698681 4.5630108316888629 N
atom 3.0929561826620757 3.6390749779636211 14.5362694453608192 N
atom 10.9274848449596753 11.7304958426149426 4.5331235866247575 N
atom 12.5107015233299119 9.1146606427015957 14.5744363966889150 N
atom 12.5078772250939281 9.0015607310592252 9.5132740024179778 N
atom 12.3903185973879264 9.0235195795178189 4.4953396356183992 N
atom 14.0670022259303895 6.3029142790894408 14.6453497939304054 N
atom 14.1103702213146267 6.2975239816711923 9.5414562070667319 N
atom 13.9782127219509480 6.2918211397355757 4.4223468131686152 N
atom 6.2316244980321951 14.4977269912930709 14.6163645451903097 N
atom 6.2212904163980944 14.3968656503503691 9.5438365183001945 N
atom 6.2816684166913603 14.4510321645518083 4.4906383087954733 N
atom 7.7230195930694023 11.7768971133503015 14.5818175893848014 N
atom 7.7604223451889354 11.6780657188604682 9.4469578013011350 N
atom 12.5080510896708912 14.4807462471642658 14.5044521883538948 N
atom 12.6025985643148388 14.5084003361079965 9.5079619337081809 N
atom 12.4815465509857724 14.3797129804124264 4.4613654208025606 N
atom 14.1339555719559637 11.7408179867216944 14.5814450548910184 N
atom 14.1307315560697351 11.6666077496794252 9.5398230348101887 N
atom 14.0210036821217070 11.6696237722207563 4.4043512022118056 N
atom 9.4607179461883391 14.4438651106687743 14.6729981593847345 N
atom 9.3557477798148980 14.4203256776622180 9.5139573944477629 N
atom 9.3004151220718470 14.4548924484488328 4.2891819542369740 N
atom 10.9022885184642018 11.7675061489035198 14.6860787500159784 N
atom 10.9277701673311736 11.7270874012344457 9.5901642048588354 N
atom 14.1949104607677654 1.0131163662570435 9.4574168898158888 N
atom 14.0358277758908745 0.8565258705825156 4.5196372418705542 N
atom 3.1440368162910142 14.4075926427251222 14.6798165990936678 N
atom 3.1638436986532663 14.4374833619746319 9.6045649997415836 N
atom 3.1042033285078938 14.4170089283717804 4.6305102979102761 N
atom 4.6453103230814294 11.7509853116268417 14.5872341438512496 N
atom 4.6189483080151463 11.7488315721615049 9.5615814067575879 N
atom 4.6917782185160002 11.7535310735349245 4.5655646268466139 N
atom 6.2373149397480248 8.9902180883572189 14.7009153641530581 N
atom 6.3020408551546723 9.0317116526070205 9.5350802519919302 N
atom 6.2782277180272832 9.0243227887755584 4.4806493565081533 N
atom 7.7993497369043565 11.7956013920379696 4.4674433708880583 N
atom 9.3742144914874412 9.0672875481294390 14.6307960691479515 N
atom 9.5121928407787344 8.9710991295199065 9.5220528970702407 N
atom 9.3016644357762388 9.1048756099654042 4.4520763793269333 N
atom 10.9075317651375148 6.3462458719095496 14.6537116590552756 N
atom 10.9840338601295393 6.3164077934997893 9.5401575531120422 N
atom 10.8017241654957363 6.4072078172554505 4.3938051049372167 N
atom 12.5115881880276092 3.5746346716529347 14.6304620075357938 N
atom 12.4915051192475097 3.6973714948605609 9.4720660982892966 N
atom 12.4948928418819687 3.6413782606957894 4.4592009424781853 N
atom 14.0389389630880590 0.9624723891500211 14.7259138383067647 N
atom 6.1839329670231340 7.1822349885129269 2.0349799509583870 N
atom 7.7992541272411078 4.5162630175622640 12.0800315829057094 N
atom 7.8002481870613236 4.4007876643598873 7.0206902230431512 N
atom 7.7105016560843049 4.5685277107972846 1.9156236868488170 N
atom 9.4347844457455246 1.8364319001466762 12.0238289581956028 N
atom 9.4272103964347416 1.7865665051531685 7.0059717842455029 N
atom 9.4345597283647695 1.8432711582013781 1.8656774494408901 N
atom 15.6271866342245307 12.6675169820171512 12.0521241546777098 N
atom 0.1113332184243442 12.5313200529835775 6.9847776483198105 N
atom 15.5354680095845996 12.6828161982265364 1.8360624194588782 N
atom 1.6776525037971315 9.9144300562262533 12.1591138565851260 N
atom 1.6140381412162805 9.9034521898503698 6.9169478078028659 N
atom 1.6690232084910055 15.1835530391831011 12.1331673827421973 N
atom 1.4861932466046972 15.3470876873085729 6.9559570489914426 N
atom 1.5062424417759896 15.4181027396155770 2.0031228927582334 N
atom 3.2418159865706535 12.5587891473099003 12.0917328067779764 N
atom 3.2068710391266841 12.5506004191919178 7.1174542617143457 N
atom 3.0666650541943827 12.5558029699034499 1.9609024555660612 N
atom 4.6691502749802982 9.8716006866888790 12.0687625115441630 N
atom 4.6280375571632657 9.8799478931187430 7.0074969153095958 N
atom 4.7295448946132561 9.9735706371125108 1.9421461762915426 N
atom 6.3656933421097648 7.2798314168228417 12.1132409697292953 N
atom 6.1080117969153225 7.1612205574491732 7.0381811846049311 N
atom 0.0505177650263007 7.1209432314296608 7.0064476880362285 N
atom 0.0246744373345492 7.2454183459162609 1.9826450141528229 N
atom 1.6007489577627876 4.5410811189463400 12.0630355351844418 N
atom 1.4671911849144770 4.4883227410837154 7.0605967764825577 N
atom 1.4947986266521616 4.3837908349109842 2.0012247041464470 N
atom 3.0993266106875486 1.7894296894742547 11.9960501714824108 N
atom 3.1207682448081502 1.7282863138801594 7.0736244122793135 N
atom 3.2163615439790099 1.8811063709733276 1.8423514611827845 N
atom 0.0461778872307656 1.8511697652177539 12.1096225579292955 N
atom 0.0561717407427867 1.8908255223041905 6.9936119801623100 N
atom 15.5720481067698771 1.8435293582472234 1.8741488778494142 N
atom 1.4978915408243751 9.9858399531402249 1.8672774952324354 N
atom 3.1405807583927334 7.1787730187639758 12.0992684329923126 N
atom 3.2116745413558849 7.1734199157351908 6.9601589704168072 N
atom 3.0718513855835599 7.2595074650444609 1.9107476020405678 N
atom 4.7045011544143307 4.5295360260147008 11.9893891319713681 N
atom 4.6373465772519618 4.4490731307104987 7.0273196379796596 N
atom 4.5834802558182455 4.4898230598222959 1.8783229770682981 N
atom 6.2665073175825086 1.8086551887282338 12.1456761576775598 N
atom 6.1448211299724580 1.8243074860599913 6.9452457058493442 N
atom 6.2035566586096227 1.8309855365438306 1.8725467682876933 N
atom 15.5296865169441460 7.2904823583908493 11.9980264376769856 N
atom 14.0742442838195743 10.0130788056318920 1.8807940594687353 N
atom 7.8516945029646248 15.4462576268443090 12.0607661010812688 N
atom 7.8987883219455375 15.3579046085369111 7.0383550379020994 N
atom 7.7387865817552388 15.3292016094110473 1.9081898923093483 N
atom 9.4020710906587954 12.6902377299844691 12.0914067462345312 N
atom 9.3882856443832878 12.6862357715144114 7.0399787909338061 N
atom 9.3521488073040100 12.6449198429320528 1.9798253595271080 N
atom 10.9584514375274864 9.9535502050469802 12.0712744684096567 N
atom 10.8747692836001857 9.9348412205243566 7.1033080980479761 N
atom 10.9399946651834483 9.9373643548176247 1.8939172793707928 N
atom 12.4731594633467786 7.2868172298173555 12.1559610560093709 N
atom 12.4305462762340735 7.1543611031716852 7.0996245909845443 N
atom 14.1353876021614120 15.4909736211010127 12.1555859196169038 N
atom 14.0482940026983414 15.3761974142299103 6.9716839643347299 N
atom 14.0273726870775590 15.3177746207274659 1.7997140140518897 N
atom 10.9749001399686676 15.4064651073093160 12.0121084312069382 N
atom 10.9552723610507936 15.3524194685146078 7.0085844638452368 N
atom 10.9500774323636989 15.3180237037518161 1.8043107025351999 N
atom 12.5716398410284107 12.6339513377502932 12.1348797034111726 N
atom 12.6188235888802112 12.5570962750749899 7.0059942706714953 N
atom 12.5041034921973360 12.6061136091543577 1.9819323787537464 N
atom 14.0512676656256872 9.7880983780947997 11.8731474021225250 N
atom 14.0619103573832138 9.8775515448004754 6.9993233782635533 N
atom 7.8076813639044156 9.8479534318399367 6.9832624849171392 N
atom 7.7449843004289303 9.9695763531176027 1.9119601334363276 N
atom 9.3647589194582679 7.2314216053857017 12.0499069899397053 N
atom 9.3887639845393362 7.1260501151982121 7.0735298929338759 N
atom 9.3205619214140683 7.2213447181090675 1.9548235529232203 N
atom 10.9225131799884441 4.4862898206485227 12.1999221600033572 N
atom 10.9411684970522689 4.4398384737046426 6.9860908079294752 N
atom 10.7936686135870819 4.5459298296350035 1.9261471008345969 N
atom 12.6817588178428302 1.9050220598657346 12.0214430396573029 N
atom 12.4850139747889628 1.8014214693782182 7.0496498118339153 N
atom 12.5194650170867341 1.8724827782624340 2.0066781730668044 N
atom 12.4421210082527445 7.1066500824363255 1.9187196667975832 N
atom 14.0889476488161378 4.4086219562051463 12.0967803989487646 N
atom 14.0775262671313328 4.5316623298414971 6.8829514943476875 N
atom 14.0252940397296424 4.5161453281594435 1.9353987884096082 N
atom 4.6584307326861500 15.2821529737182935 12.0654018050999152 N
atom 4.6794321902198046 15.3005868421444582 6.9952822177702831 N
atom 4.6320355397565960 15.2798382831932411 1.9302269087659885 N
atom 6.2804359059158017 12.6041673132026393 11.9757831387868663 N
atom 6.2067038504410643 12.5027330038265383 7.0314811485042066 N
atom 6.1752513162405664 12.7143174713451721 1.9320035974435419 N
atom 7.8581666125294918 9.9123011269359136 12.0790990275606642 N
