#===============================================================================
# Created using the Atomic Simulation Environment (ASE)

# Thu May 11 08:59:47 2023

#=======================================================
lattice_vector 16.0100851999999989 0.0000000000000000 0.0000000000000000 
lattice_vector 0.0000000000000000 16.6381685999439100 0.0000000000000000 
lattice_vector 0.0000000000000000 0.0000000000000000 15.6179127599999905 
atom 0.0424234270945459 14.8051687816241024 2.6425589501877882 Ga
atom 1.5031502721714676 11.9647354070874918 12.9616204050123915 Ga
atom 1.6740187474433410 11.9734244299435009 7.7744834983698192 Ga
atom 1.6175831499340214 12.0404638841150273 2.6541184479993438 Ga
atom 3.1054523133857423 9.2238868899524569 12.9650967227957050 Ga
atom 3.1918628876752564 9.2561062778503800 7.8773980547269931 Ga
atom 3.1958465218540510 9.2243670483789995 2.4603060880568495 Ga
atom 4.6435490481837256 6.5551826510735198 13.0980298990427926 Ga
atom 4.8115689367835834 6.5046937889127321 7.7366525297397901 Ga
atom 4.7859553826570593 6.4596106423691717 2.5923886123126487 Ga
atom 6.3594927805857049 3.7655309349204349 12.9471476796955827 Ga
atom 6.4730166889318257 3.5923669555043927 7.7820867594246348 Ga
atom 7.9417031920024366 6.3683663551768941 13.0819564673584523 Ga
atom 8.1413062291894036 6.4981406058197200 7.8465614866623383 Ga
atom 7.9649293072623522 6.4634998168571602 2.5288039610979101 Ga
atom 9.7036350059034895 3.6260183768440637 13.0744219227188392 Ga
atom 9.7050945781132860 3.5783492663936953 7.6885299965775369 Ga
atom 9.6830540319934570 3.5610059699957759 2.5363919692654142 Ga
atom 11.1348052070171875 0.8940383667890119 12.9867637192403489 Ga
atom 11.1568650592520768 0.8430847285525962 7.9124114636676550 Ga
atom 11.1776070812775359 0.8923822962205709 2.6152505967009305 Ga
atom 15.9909549480993363 14.7890753487212656 13.0720349687710229 Ga
atom 0.0344245470584370 14.7648544593057753 7.8423173765400449 Ga
atom 3.2375127437646949 3.5856254739136091 7.9522370489973415 Ga
atom 3.2694633003762243 3.7932572281595180 2.6553676773110220 Ga
atom 4.8608475584120647 0.8885268955738179 13.0130802523330207 Ga
atom 4.7841589290823583 0.9197483493864314 7.7359575010180306 Ga
atom 4.8944491645791208 0.9380164946719175 2.5671312644864344 Ga
atom 15.8466642532139286 3.6592797556455534 13.0385138034761656 Ga
atom 0.0532477088192419 3.6836840013445671 7.7676168349707311 Ga
atom 0.0384485705017979 3.7742494295581359 2.6279702933202449 Ga
atom 1.5224533277368686 0.9404103053758411 13.1613627398780810 Ga
atom 1.6120062915075575 0.9498594979395103 7.8240059074328947 Ga
atom 1.6823991290690006 0.9997150299272706 2.6686605479051826 Ga
atom 6.5169496584827824 3.6654429634896299 2.5993611692652618 Ga
atom 7.7696661040239672 0.9524421505842235 12.9129073341441423 Ga
atom 8.0706196131329975 0.9554460052948496 7.9043773032873270 Ga
atom 7.9302610568653327 0.7808139437691772 2.6302010431719491 Ga
atom 0.0140844198820919 9.1967669368898761 13.0363477185478764 Ga
atom 15.9951338966804482 9.2061018231124017 7.8553863135811124 Ga
atom 0.0440544430914940 9.3004963623629013 2.5591461044765187 Ga
atom 1.5970192911886700 6.4429584866099452 12.9415485528708469 Ga
atom 1.6691832305418972 6.4452035722467214 7.8204320533918850 Ga
atom 1.6429559095692077 6.4655484384129451 2.6155897379797834 Ga
atom 3.0666691056251452 3.6453883012364536 12.9791646889173933 Ga
atom 11.1501425264329814 12.0965149505818932 2.4526607429349538 Ga
atom 12.8129523153595262 9.2546844810373727 13.1435078166978236 Ga
atom 12.7315920179832673 9.2266948029923022 7.7540893734652965 Ga
atom 12.8007615165321660 9.3035522859486282 2.5884898329523622 Ga
atom 14.3020388084194199 6.4424491755633815 13.1800547977219242 Ga
atom 14.4505061289519396 6.5329535321818213 7.6505537770700043 Ga
atom 14.3717577043359501 6.4343694198530255 2.5622790893910468 Ga
atom 6.2720888509223656 14.7522643338833443 12.9478315842563028 Ga
atom 6.4613332365419218 14.7194781341802194 7.9252952692417251 Ga
atom 6.3540318651866725 14.7298174243364137 2.4578523506155974 Ga
atom 8.0142766085736046 11.8794107283698871 13.0939981176697273 Ga
atom 7.9441665379797755 11.9414400239329446 7.9152956253453226 Ga
atom 12.8453553161816671 14.7952410704849679 12.9743681734216256 Ga
atom 12.7517546283878787 14.7157871911683387 7.9066834794448280 Ga
atom 12.7556175163468559 14.8567403942183489 2.5579478306339865 Ga
atom 14.3463275249275650 12.1422030510172352 13.1440922217628398 Ga
atom 14.3732142879330578 12.0270866291227954 7.7672404698260094 Ga
atom 14.2824651187985463 12.0243033111114404 2.6720390288130011 Ga
atom 9.6244066009024447 14.6845502962121781 13.0565444801262434 Ga
atom 9.5938991417471229 14.7744654127045969 7.7855431953908845 Ga
atom 9.6526427210764378 14.8059355954261740 2.5633585493970452 Ga
atom 11.1498897281165785 12.0001045689137502 13.0267347390006520 Ga
atom 11.1914328462427886 12.0484980615319657 7.7588928413149123 Ga
atom 14.2735524044371438 0.7810453186014228 7.7804527244954613 Ga
atom 14.4176482406982185 1.0379730153628881 2.7063049710408222 Ga
atom 2.9566892074130693 14.7863240751248295 12.9889324713853185 Ga
atom 3.1086462309194771 14.8536516390784232 7.7486907621722176 Ga
atom 3.2566764423631689 14.8424491401017722 2.6626520480107709 Ga
atom 4.6651247196376930 12.0452235832170551 12.8522771199542216 Ga
atom 4.8963368359104358 11.9417319814352574 7.9069383636069315 Ga
atom 4.7202069760401164 11.8470161466468404 2.5915504587501754 Ga
atom 6.3924677128195802 9.1752731003685195 12.8365778487200668 Ga
atom 6.3840531732410319 9.2687789049076326 7.7100806523989549 Ga
atom 6.3752245271980517 9.1642844070583038 2.5900787061733999 Ga
atom 7.9996645339672190 12.1136329131173497 2.5719234765338119 Ga
atom 9.6491774818904137 9.1645563268457995 13.0943094194538752 Ga
atom 9.7118907794316662 9.3951366762498107 7.7960228502644311 Ga
atom 9.5058652344663201 9.1033716923981096 2.6947510058764235 Ga
atom 11.1852225036615156 6.4665142481700473 12.9990253950027039 Ga
atom 11.2858073630045830 6.5327419751833373 7.7595185776856361 Ga
atom 11.2386945746886209 6.4628563468514342 2.5644720613506373 Ga
atom 12.8030121150177560 3.8371452934481134 12.8996104124061581 Ga
atom 12.8597566735982873 3.6573177203535474 7.7727471018054688 Ga
atom 12.9509106512470709 3.6100678418224175 2.5899518515483448 Ga
atom 14.3548628348113425 0.9443203741103983 13.1057158155419629 Ga
atom 6.4525658037315070 7.3813223370198715 5.1698013072367672 Ga
atom 8.0528119219166623 4.6779363097567046 15.5962499412061355 Ga
atom 8.0116981503390381 4.6800427973102066 10.4167716962686328 Ga
atom 8.0396715253834934 4.5255027140947934 5.1823135673265055 Ga
atom 9.5682829059561438 1.7653642137139902 0.0092367319112089 Ga
atom 9.7742782631232714 1.9170503680547331 10.5120476230350697 Ga
atom 9.6204924050257361 1.8788135606464544 5.2025261802929341 Ga
atom 0.0397599158601590 12.9329138969389064 0.0673285897886934 Ga
atom 0.0512112481753022 12.8578244477308967 10.3743854411711762 Ga
atom 15.9133036239817613 12.9955770693283430 5.2657006133130677 Ga
atom 1.5877293445808542 10.2482956182570142 0.0529104957807872 Ga
atom 1.5714073832639344 10.1069797336472575 10.4950718344761480 Ga
atom 1.5478552808866652 15.7112591169994200 0.0392357121672834 Ga
atom 1.6041486716002709 15.7696578024008911 10.4596754971989139 Ga
atom 1.6614089795622276 15.6881469950259600 5.0808063311962179 Ga
atom 3.0695999145502957 12.9233802385628547 15.5329564231006820 Ga
atom 3.1827462075288264 12.9957565449124495 10.2778242837524250 Ga
atom 3.2976387302758785 12.8241408611510899 5.1814125562991649 Ga
atom 4.7246472612110102 10.1477216378700277 15.5266826646007292 Ga
atom 4.9151082112869897 10.1202517774911485 10.4298536122070491 Ga
atom 4.8363424784924156 10.0492921953782677 5.2067614213396070 Ga
atom 6.2868360015839722 7.4065609067730378 15.5812977200199949 Ga
atom 6.4442084692059405 7.3419621330950964 10.3419762128824200 Ga
atom 15.9881350815566901 7.3330005533757809 10.3616983728033283 Ga
atom 0.1019034964513467 7.5384239826900439 5.1548073940109607 Ga
atom 1.6130727606829292 4.5871995192932431 0.0066193557369762 Ga
atom 1.4437750808034422 4.6178529694968260 10.5417150211242348 Ga
atom 1.6639191778560294 4.6404609416042542 5.2350366074165651 Ga
atom 3.2034062362464906 1.8703741323643519 15.6126322807701712 Ga
atom 3.2034166558656199 1.8969619273565406 10.4978036357811177 Ga
atom 3.2855284229941515 1.7855140778737968 5.2810753341852932 Ga
atom 15.9174828617682547 1.9258401463778310 0.1396435393916682 Ga
atom 15.9857394349343469 1.8967103034258750 10.3700015309877021 Ga
atom 15.9768561578840078 1.8064778167446502 5.3006323149345969 Ga
atom 1.6921301692989732 10.2618331139888692 5.2874853720369002 Ga
atom 3.0141949277501778 7.4695758386458611 0.0001943618046201 Ga
atom 3.2079598663001727 7.3904776056047687 10.3705131420205507 Ga
atom 3.1904228167889288 7.3927180784973121 5.2732017014619066 Ga
atom 4.7702453838199244 4.6022746545028177 0.0272097730503440 Ga
atom 4.8349609545429191 4.6382409749468696 10.3811435029988903 Ga
atom 4.8675327081823729 4.6406040351246860 5.2303176215377576 Ga
atom 6.5147359366732420 1.7784368633055587 15.5788668515701048 Ga
atom 6.5034697668646562 1.8820358351126125 10.3560054669318529 Ga
atom 6.5252903517575618 1.8253746817132359 5.2816451550723578 Ga
atom 15.9454809171318530 7.3498400534712465 0.0815638178176417 Ga
atom 14.3299382890342688 10.1878469288088702 5.2181460022242296 Ga
atom 7.9549445896010766 15.6178514878425982 15.5667782053028976 Ga
atom 8.0800564265065322 15.7740139271255781 10.5134453380344546 Ga
atom 7.9451939549968609 15.6871296929748478 5.1541488926939287 Ga
atom 9.5047804350770342 13.0210019338953842 0.0117895587072518 Ga
atom 9.6125989683763233 12.9205071269183414 10.4625573066650830 Ga
atom 9.5631362485984734 12.8726272463174336 5.1930505747362536 Ga
atom 11.1971581439200847 10.2175944688399163 0.0495008797097378 Ga
atom 11.2730073526599472 10.3024007121832213 10.5439266362003412 Ga
atom 11.2274133506505542 10.2585726950505478 5.1248003864821072 Ga
atom 12.7616817446834840 7.4241898885008260 0.0289270015495185 Ga
atom 12.8309576124984748 7.5947906798393294 10.3416995224748174 Ga
atom 14.3744221954360629 15.7463095293160578 0.0368846028502789 Ga
atom 14.5206384481561521 15.7195291098350420 10.4937548371449907 Ga
atom 14.4414183550289081 15.7879439792909491 5.1752263055806882 Ga
atom 11.3089589764042557 15.7881573768462378 15.5439055552264662 Ga
atom 11.1571770694709116 15.7213326782883982 10.5048859384070177 Ga
atom 11.2130308962268970 15.7294456211658531 5.1202704905069689 Ga
atom 12.8087861931954112 13.0178938829176172 15.5106596186137775 Ga
atom 12.8281480926554252 12.9410055250738552 10.4127489048994359 Ga
atom 12.7429814449719565 12.9582769249565413 5.1466096377508626 Ga
atom 14.3238701003632372 10.2063470542156889 15.5510532407455955 Ga
atom 14.4247981563570651 10.1798541659951418 10.5614287544932370 Ga
atom 8.1588450364853653 10.0651046042815864 10.4070614707360534 Ga
atom 8.0713584305966801 10.2875028882000574 5.1037884444638131 Ga
atom 9.5802999349607170 7.4546487820919491 15.5858276725271363 Ga
atom 9.7690532679143995 7.3893464421435935 10.3903581026748757 Ga
atom 9.6689593254185286 7.4316754800199964 5.2526069127445778 Ga
atom 11.2807468554379540 4.6320723207658494 15.6132175947597585 Ga
atom 11.2550423496277023 4.6752302023457180 10.2957748909951015 Ga
atom 11.3496184353357297 4.6709040954036922 5.1740323230475251 Ga
atom 12.9299996000117901 1.9478147041864891 15.5411085996606051 Ga
atom 12.8358614008360838 1.9372795348498109 10.4369568641076444 Ga
atom 12.7717515527326100 1.8285127606013176 5.0884244708628739 Ga
atom 12.9234726160623907 7.4100080379640723 5.1606407535788774 Ga
atom 14.4763630739610232 4.6209298592905341 15.5927500196581725 Ga
atom 14.4532247719124616 4.6863390149540729 10.3691820051993346 Ga
atom 14.5082122106300968 4.6912521648587822 5.1508466857789523 Ga
atom 4.7693334742823064 15.6671858353808755 15.5720322818716159 Ga
atom 4.7882475719399338 15.8037711457644807 10.4707701498131325 Ga
atom 7.9364258042791755 10.0866536671537137 0.0194848692570949 Ga
atom 6.3859414654243984 12.9513789402071886 5.1945238859802547 Ga
atom 6.4019369134489930 12.8563647422757921 10.5081155885021840 Ga
atom 6.3230330368438521 12.9718166227119092 15.4708360944917054 Ga
atom 4.7701547915366733 15.6757409308449258 5.3313789463752697 Ga
atom 3.2671599093884427 9.2346495390034882 9.8274413470441413 N
atom 3.0931608480751915 9.3465203202039078 15.0442402541324558 N
atom 1.6372785374415550 12.0819699496326169 4.5768831942645916 N
atom 1.5884095896142072 12.0161451663624916 9.7020670858837121 N
atom 1.5407961855178964 12.0618938792482275 14.9025910882119614 N
atom 0.0267499676376270 14.7500507757210730 4.5470080677734543 N
atom 3.1973362123222602 9.2014624657914403 4.4764101144601849 N
atom 4.7036185141164575 6.4253508377251594 15.0072736145186365 N
atom 4.9057206057790248 6.4846906154482378 9.7676225368792515 N
atom 4.8024192575912519 6.4959804525252487 4.5790978802886997 N
atom 6.4601201261973413 3.6541267376081983 14.9505553788290637 N
atom 6.4749257490200360 3.8032063418169813 9.7268309157339878 N
atom 7.9653684996276546 6.6028226608898244 15.0162241212879106 N
atom 8.0777360189925247 6.4811677803032310 9.8469506128155171 N
atom 8.0705417721365382 6.2938455651663459 4.4953767708182548 N
atom 9.5588626418857174 3.7143498443073422 15.0626946252426919 N
atom 9.7246586647014208 3.6569618015566214 9.7173141096542839 N
atom 9.6788196868132772 3.6201718674536827 4.5505047222061874 N
atom 11.3074938793796651 0.9839232826827340 15.0600887299509019 N
atom 11.1580532928869225 0.9499701218411518 9.7156680085743492 N
atom 11.1266955478372385 0.9247313749653635 4.5637065038575564 N
atom 15.9835592211242723 14.8079700937608916 15.1110815529436842 N
atom 0.0644864178131743 14.7489611568393144 9.6841024671011979 N
atom 3.1060994734393819 3.6732760541601692 9.9160554883589977 N
atom 3.2812861371993174 3.6490548726070582 4.5616443415727925 N
atom 4.8827578278698640 0.8271388119309956 14.9483948522403320 N
atom 4.7900136827144575 0.9737692206321507 9.7058006866343298 N
atom 4.8448130469606463 0.8939376563463054 4.5555129076168734 N
atom 15.9810957839494847 3.6880195343007629 14.9825463337502853 N
atom 15.9712124443332328 3.6631373359055370 9.8467680838211393 N
atom 0.0947575408782685 3.7174196459164484 4.5998511660591221 N
atom 1.4356201697926629 0.9594892321050618 15.1090623015167509 N
atom 1.5510012632876005 0.9741638259291807 9.7498587841571389 N
atom 1.6015939585319288 0.9438633019407553 4.5888246701058337 N
atom 6.4064886324649386 3.6665620190716672 4.5791774274373136 N
atom 8.0269779260264311 0.9080714499337791 14.9155718968153863 N
atom 8.1540437270596868 0.9619523115815511 9.8065583718862985 N
atom 8.0731815813999113 0.9118619040424549 4.5857816584486644 N
atom 15.9160037786359840 9.2495687222222820 15.0014460362166187 N
atom 15.9967886046180929 9.2090121275472949 9.7621408313079883 N
atom 15.9690515388613790 9.4150803697862813 4.6389585515823057 N
atom 1.4807418068898792 6.4271662676453767 14.9135378214193146 N
atom 1.5712123371000259 6.4452226405817346 9.7845438305978085 N
atom 1.6605619424951923 6.4845756205363179 4.5368272782980208 N
atom 3.1826268874497745 3.6753064881327120 14.8399148680842945 N
atom 11.2751603803367164 12.0988926846229621 4.3895684517832123 N
atom 12.7660626072376111 9.1729392118757378 15.0227737308016867 N
atom 12.8817928568669533 9.4061886836581685 9.7219980854076535 N
atom 12.7984309639932849 9.3071294739759924 4.5123388185151310 N
atom 14.3959743779067821 6.3537462002907352 14.9948087765383207 N
atom 14.4035812786537853 6.5533503513086870 9.6972955832715861 N
atom 14.3707638122589216 6.5743499586903322 4.6103537789756510 N
atom 6.3268832478439787 14.7226825808508845 14.8684187208293235 N
atom 6.3905504737660914 14.7435499097463047 9.8449363124816731 N
atom 6.3873479138871820 14.6683317499030057 4.5930660615879111 N
atom 7.9646523281022397 11.9863608892059297 15.0257200188216213 N
atom 8.0203929874587594 11.9678606206830747 9.8760816896403814 N
atom 12.8255316023808561 14.7460514830890101 14.8561086416433259 N
atom 12.8339877510016223 14.7440583849724725 9.8515168700339100 N
atom 12.8303848708731607 14.8147294998548578 4.4765314194443881 N
atom 14.4247693216803370 12.0977851922842543 15.0008151998481889 N
atom 14.3800221687669296 11.9003495171457470 9.7754275200322578 N
atom 14.3357975519295984 11.9825278483292461 4.6064445533873126 N
atom 9.7257049486615621 14.8121276300392264 14.9955846063504517 N
atom 9.6613823263014798 14.7499946533994333 9.8470649605510641 N
atom 9.4723074263624891 14.6777473607170883 4.6456748318239578 N
atom 11.1293238509765846 12.0240978011030961 14.9903648018939482 N
atom 11.2187482039126731 12.0247242312949982 9.8330438589499511 N
atom 14.3282288487756873 0.9907709709428842 9.7745320606604800 N
atom 14.4167460158486165 0.9404633429039886 4.6810254398381064 N
atom 3.0585124444283545 14.8486099560889837 14.9390905322228456 N
atom 3.3124641892673710 14.8446156350719729 9.6977870741141370 N
atom 3.3852424392701206 14.7224972128507190 4.4676629628989550 N
atom 4.6929384639200320 11.9985363489744667 14.8480700764816849 N
atom 4.7407663347595763 12.0085747341735001 9.7838074674366080 N
atom 4.7624511567543593 11.9516315261881374 4.5680912165710703 N
atom 6.2686135948797226 9.2228149060842242 14.8069127780443246 N
atom 6.5220531459137110 9.2390016295671025 9.6698710062094833 N
atom 6.4686373095681615 9.2516836422558590 4.5532526060363621 N
atom 8.0339033559594473 12.1070844390188785 4.5377667300465339 N
atom 9.5499938708297485 9.2923379149931193 15.0409995782972175 N
atom 9.8345373071514235 9.3190017419579441 9.7869872114954681 N
atom 9.5712548785411933 9.2507198360385701 4.6006704141210193 N
atom 11.2323183869754253 6.5289234015754314 15.0421176457521675 N
atom 11.4387007730369490 6.5980033772865543 9.5758472049813861 N
atom 11.1784976307006190 6.4950562154129923 4.5980992769313787 N
atom 12.9408040731649123 3.7362113067684826 14.9539955538062497 N
atom 12.9166325850619881 3.8196864393072985 9.7475609126348353 N
atom 12.9003199413034189 3.6674672237133144 4.5417271922436280 N
atom 14.4828334793346354 0.8254981478782452 14.9737651096023896 N
atom 6.4297984452644332 7.3973831764582103 1.8877917966311524 N
atom 8.0920557675817850 4.5478247501770790 12.3621400987969547 N
atom 8.0053009135587683 4.5784908206742969 7.0832942061926705 N
atom 8.1528071750746403 4.5134988016606332 1.9476113834742192 N
atom 9.5370156598246574 1.7867710386643731 12.3738233368704247 N
atom 9.6564275315664752 1.7887186181176897 7.1160682807456359 N
atom 9.5025036424042764 1.7421194267850861 1.9459118990044024 N
atom 15.9856536325165273 12.9686397101870750 12.3452218606072979 N
atom 0.0169677970645026 12.9510530100872767 7.1715498554726498 N
atom 15.9351972374221909 12.8681600607265434 1.9727536420324800 N
atom 1.6212260003173418 10.1578755407131371 12.3878088698181443 N
atom 1.4804869694878793 10.1534440542594790 7.2271338196604953 N
atom 1.4508054804652635 15.7683431492090946 12.3615566366451475 N
atom 1.6233647710684767 15.7488291587289311 7.1048796679264159 N
atom 1.6506874106806613 15.7430664122741621 2.1098644698889237 N
atom 3.0600432607161463 12.9462644808972893 12.2764337855197585 N
atom 3.2023559459519282 12.9206616497356954 7.1321278959419381 N
atom 3.2352407920076032 12.8803658193135480 1.9027147574437719 N
atom 4.7783854345494765 10.0656631924742950 12.2758574073342626 N
atom 4.7681430773922848 10.2206656155429609 7.2188193081857763 N
atom 4.7844076001550544 10.1203220314392919 1.8892412101000178 N
atom 6.3499684934288698 7.2925484425660017 12.4289117588604316 N
atom 6.5059123444195448 7.3825375847727361 7.0913389901796196 N
atom 0.0527036185385319 7.3693779231070549 7.1452125953480268 N
atom 0.0106392094789975 7.4926132361155675 1.9962849622746364 N
atom 1.4472279348608479 4.5935031389985976 12.5331033038341300 N
atom 1.7078413957438130 4.6398519489903789 7.2412628979651350 N
atom 1.6676099313591830 4.6913130333557795 1.9812255400593823 N
atom 3.2075789823179104 1.6996207380480017 12.5646757904517443 N
atom 3.0865680536054279 1.8023184442851830 7.2191991453814817 N
atom 3.3339113146470543 1.9244364477099232 1.9067966402705592 N
atom 0.0022306302177395 1.7284356035613193 12.4602958215910498 N
atom 0.0115026820569803 1.8244057635346114 7.1421617698198316 N
atom 15.9965198332001073 1.9709217557980292 2.0207443587302132 N
atom 1.6270548442485160 10.2418091552143853 2.0194981295727223 N
atom 3.1218759116256396 7.4997882219970240 12.4033913243024774 N
atom 3.3332780360140291 7.3932706890550897 7.2451118744179421 N
atom 3.1574319548316754 7.3763399923325332 1.8962124023512930 N
atom 4.6745623225818811 4.6349569584470851 12.3642798022307883 N
atom 4.8002127700626271 4.5600472225839388 7.2044040264252969 N
atom 4.9110083188029607 4.7068664399941369 2.0076125946156429 N
atom 6.3203457032944828 1.8947951787710668 12.3399950608683060 N
atom 6.4157198696292355 1.8246912561174524 7.2527904269945598 N
atom 6.4652509255505715 1.8800607032813594 1.9457748074706835 N
atom 15.8883683874205062 7.3759250471643920 12.3693185932503251 N
atom 14.4264148020768150 10.1458045023812353 1.8566811101133320 N
atom 7.9400433664010333 15.7229174387907928 12.4642901591897584 N
atom 8.0206747194238375 15.7864497764831846 7.1030026297307485 N
atom 7.8938869817659914 15.5812404533150239 1.9651836388437298 N
atom 9.5904405772570360 13.0023586232618769 12.4956441691250415 N
atom 9.5031155649824459 12.8249926830272489 7.1368875880416720 N
atom 9.5623690772964753 13.0621913150225240 1.9438129181532877 N
atom 11.1767501633305777 10.1297333585179459 12.4591385232035172 N
atom 11.2536443293273347 10.2883985266664375 7.0751326535003471 N
atom 11.0283363554847931 10.1663465926658141 2.1278656547481489 N
atom 12.8073283591935194 7.3993651710744652 12.2948856307707306 N
atom 12.8746131496308394 7.4286131524494285 7.0776994504648467 N
atom 14.5020424881716128 15.6752612173421451 12.4042570480153191 N
atom 14.4050648931907563 15.6077814931537002 7.1931952694697694 N
atom 14.3711232305222083 15.7827518684668835 1.9375822869260808 N
atom 11.1228526735705664 15.7137947300940723 12.3474220974411057 N
atom 11.2449549012221013 15.6822076950055500 7.2349446197311922 N
atom 11.0623223324225393 15.8213741173660765 1.9693084668293428 N
atom 12.8024087009342047 12.9180914887810570 12.3630120780456334 N
atom 12.8578704645485828 12.8951731361618176 7.1449673342993707 N
atom 12.6880012016624306 13.0510067436748667 1.9665454999688401 N
atom 14.3746826725586807 10.1588760592895326 12.5142094540600333 N
atom 14.3330442108027736 10.0988271864965053 7.1485343298748649 N
atom 8.0911175884064281 10.2249108107716005 7.1331551387005891 N
atom 7.8973921978356909 10.1303335272809250 2.0459741463890269 N
atom 9.5447823876942710 7.3452161355995678 12.3403396036760036 N
atom 9.6228525932108600 7.4627630437678816 7.1978821397073087 N
atom 9.6573190912710842 7.2927371214504086 1.9509766265838953 N
atom 11.1912112326975848 4.5932418193916433 12.2513147354990881 N
atom 11.3517022307973541 4.6791675791052425 7.0889867881248936 N
atom 11.2412273940551088 4.5132388260435086 2.0862265896408276 N
atom 12.6666908689109672 1.9568932512128803 12.3204231569984533 N
atom 12.7912960953219166 1.7807610437730368 7.1207981703281789 N
atom 12.8460702585843407 1.8728802844779806 2.0484571114325778 N
atom 12.7972139992746463 7.3972530705441075 1.9503790061805435 N
atom 14.3883993337255216 4.7005350596013074 12.3416197503955090 N
atom 14.4465259442619161 4.6875893324219167 7.0716880786488394 N
atom 14.4038925508834215 4.5971194184272139 1.9957883737817517 N
atom 4.7354353765669401 15.6759951174307428 12.3810537810801797 N
atom 4.8535056572515458 15.6681925237851782 7.2261763874414813 N
atom 4.8646443082316599 15.6715832782300186 1.8928330253574521 N
atom 6.4496379250651676 12.7944366557424516 12.5204768884049749 N
atom 6.4910613107250326 12.8271287172784589 7.3680263376408988 N
atom 6.3873119279389483 12.8780867343377725 1.8204117541197422 N
atom 7.9975104412032003 10.0767880899799014 12.3481807527649572 N
