#===============================================================================
# Created using the Atomic Simulation Environment (ASE)

# Thu May 11 08:59:43 2023

#=======================================================
lattice_vector 16.0100851999999989 0.0000000000000000 0.0000000000000000 
lattice_vector 0.0000000000000000 16.6381685999439100 0.0000000000000000 
lattice_vector 0.0000000000000000 0.0000000000000000 15.6179127599999905 
atom 0.0043281879706952 14.8117300519641741 2.6186640276236539 Ga
atom 1.5983301571125417 12.0456419095295963 13.0694640238505375 Ga
atom 1.5734467240552794 12.0668859037778073 7.7866927566969206 Ga
atom 1.6232356228406395 12.0175343677645010 2.4846904931047478 Ga
atom 3.2311885361954045 9.2519540848972639 13.0357122529265563 Ga
atom 3.2161654349107098 9.2308182095186755 7.8421072435134835 Ga
atom 3.1607783537151124 9.2130237913034421 2.6247798000373930 Ga
atom 4.8933183523021526 6.4238116235351272 13.0056470591997826 Ga
atom 4.7923694474963545 6.4627672821111535 7.8600858320321532 Ga
atom 4.7853024858970672 6.4345511476901089 2.5716472191383066 Ga
atom 6.4549275175826502 3.6705052814350880 12.9691004342381664 Ga
atom 6.3826575882017424 3.7029527042038195 7.8064162020921479 Ga
atom 7.9614273039406109 6.4978983525477050 13.0231423714224483 Ga
atom 8.0236385288871883 6.5030994872224381 7.7736214266530217 Ga
atom 8.0150176504035979 6.4009952424128116 2.6132584725572094 Ga
atom 9.5812645678484873 3.7762981244471483 13.0092034786778754 Ga
atom 9.5513156705648150 3.6762995016375553 7.8001985164847341 Ga
atom 9.6013518796543256 3.6932071652936074 2.5942741553092419 Ga
atom 11.2105384057586299 0.9224924955004106 13.0323499897952235 Ga
atom 11.1214065332116281 0.8382292291165984 7.7526163158700996 Ga
atom 11.2205921585915664 0.9738869969711731 2.6412768230382304 Ga
atom 0.0471936131782822 14.8676594429786348 13.0484558800289747 Ga
atom 15.9726316867514466 14.8059935971607324 7.7495690289292574 Ga
atom 3.2303761836648075 3.6593491882002578 7.8130872924746884 Ga
atom 3.1611938359666714 3.6307755029293540 2.6033729990804111 Ga
atom 4.8196100188639397 0.8799809233448754 13.0272476698466164 Ga
atom 4.7687199405016756 0.9102657222016729 7.8172120901570237 Ga
atom 4.8233035982961843 0.9565720665241921 2.6169129083862304 Ga
atom 0.0876833576455528 3.7411936052113628 12.9813733106203006 Ga
atom 15.9494344752512962 3.7218599346837253 7.8584457582077407 Ga
atom 15.9756860084607517 3.7153259994407519 2.6308654940508536 Ga
atom 1.6570718744146735 0.9113634750391556 13.0763869070689296 Ga
atom 1.6049253970988047 0.8729429290037336 7.7893057835301498 Ga
atom 1.5723529359170099 0.8652139231485656 2.6108883388893434 Ga
atom 6.3746844101920583 3.7192600664905227 2.6126724141946283 Ga
atom 8.0245657382334628 0.9738315553805676 13.0426018813349973 Ga
atom 7.9986292731481425 0.9148942159232779 7.8499897625509201 Ga
atom 7.9955054349383721 0.9584294915777775 2.6703092277139806 Ga
atom 15.9797250431000855 9.2863577461330440 12.9326746210487844 Ga
atom 15.9983391334203073 9.2318214219975872 7.7763657566899322 Ga
atom 15.9821600231948828 9.1697866561105013 2.5787149316870579 Ga
atom 1.6514665363746650 6.4545331221746522 13.0030864465281351 Ga
atom 1.5994408974014447 6.4597651057175511 7.8980842766176238 Ga
atom 1.5667564724326120 6.4646648646405040 2.5869483686001926 Ga
atom 3.2031756484178944 3.6634236302076828 13.0475827560864648 Ga
atom 11.1997652283791087 11.9874332493994231 2.5776682300595679 Ga
atom 12.8314855152012175 9.2539445581337301 12.9999841555114557 Ga
atom 12.7631543694653811 9.2424671692172264 7.8598773134998279 Ga
atom 12.8682667598585994 9.1633742382965959 2.5226956652577890 Ga
atom 14.4025729488437850 6.4560662722012934 12.9321794854033332 Ga
atom 14.3714970268956268 6.5027150665613673 7.7858373132699326 Ga
atom 14.4229285945278320 6.4971846760646921 2.5868182147140257 Ga
atom 6.4606863692243657 14.7546872134108149 13.0402985465423349 Ga
atom 6.3971971121147391 14.8318044337137138 7.7981951050955427 Ga
atom 6.4686562677173098 14.7831097327335108 2.6241155916200243 Ga
atom 8.0658746101723349 12.0234656773744888 12.9845995931808016 Ga
atom 7.9530433731757304 12.0311866925776467 7.7537281634750492 Ga
atom 12.8321700266302514 14.8382143767522798 13.0673150921181556 Ga
atom 12.7833646326521286 14.8184426520141290 7.8102885920557821 Ga
atom 12.7540826709293231 14.7378774074082646 2.6077882427739834 Ga
atom 14.3910019177843385 12.0934935927187208 12.9825312973434421 Ga
atom 14.3530385123777489 11.9732829011664546 7.8277869176027535 Ga
atom 14.3888181662039631 12.0777745884890244 2.6325893097297430 Ga
atom 9.5131686192631850 14.8458536579253568 12.9740282565013114 Ga
atom 9.5414582897682703 14.7578457312622824 7.7862959550708961 Ga
atom 9.5865645188561910 14.8199790350941552 2.6206072721723133 Ga
atom 11.2230460037322235 12.0691856699726952 13.0265081863112506 Ga
atom 11.1891054911679984 12.0157079349154081 7.7926193516350084 Ga
atom 14.3955136478323560 0.8598650393906742 7.8329965442258134 Ga
atom 14.4523712248415528 0.9096354343072922 2.6083402855434104 Ga
atom 3.2165507306053134 14.7643000212466671 12.9723892273336254 Ga
atom 3.1798401738434112 14.7840484964941741 7.7876972929565680 Ga
atom 3.2264363374809748 14.8025672599228830 2.5348816176613349 Ga
atom 4.8837133553415564 11.9881453772619313 13.0705401785937720 Ga
atom 4.7837542117741778 12.0003610020100488 7.8506413616371411 Ga
atom 4.8180586390805473 12.0562107462398682 2.6075226298101821 Ga
atom 6.3831894863483658 9.2611587635677708 13.0000658887115002 Ga
atom 6.3660321178817805 9.2536209381722809 7.8423896760722345 Ga
atom 6.4906827719386335 9.2681570801885833 2.6594002334853051 Ga
atom 8.0349751796829985 11.9970848505745487 2.6580378221612753 Ga
atom 9.6382131176391788 9.2388485741556909 13.0619629378983593 Ga
atom 9.6912798516927197 9.2730377636901604 7.7866283583319209 Ga
atom 9.5880218294158688 9.1734949501202063 2.5321052834953641 Ga
atom 11.1649932568084225 6.4441446393131807 12.9901054374102340 Ga
atom 11.2784709234904277 6.4209344720818855 7.8013419608604737 Ga
atom 11.2034500218581172 6.4450718596815113 2.5658718254215818 Ga
atom 12.8609433888829230 3.6826522379661668 12.9914258443805402 Ga
atom 12.7318159328240430 3.5688441455310609 7.7970494588478960 Ga
atom 12.7887440998600290 3.7349127080347384 2.6720167166180344 Ga
atom 14.4308920725861256 1.0040622779038302 13.0163475283091223 Ga
atom 6.4349293442091993 7.3549372285998782 5.1817440016284824 Ga
atom 7.9873187747097933 4.6818345268118025 0.0880577614452775 Ga
atom 7.9949923622537922 4.5600807340605565 10.3885421310953383 Ga
atom 8.0561871727520291 4.5502534966642161 5.2266998687275352 Ga
atom 9.6127931338236827 1.8138038379954722 0.0275158647359643 Ga
atom 9.6248410008832899 1.8385601745462987 10.4680932217885125 Ga
atom 9.5931280884222900 1.8218458178977133 5.2301428409241231 Ga
atom 0.0108672457466940 12.9749446384504488 0.0067341622930644 Ga
atom 15.9430313414973188 13.0058207349659316 10.3908110311745681 Ga
atom 16.0039535342184820 12.8736793571254982 5.1337898596580649 Ga
atom 1.5584932858638736 10.1297851801392156 15.6075560446720250 Ga
atom 1.5762019061251267 10.1809461809069504 10.4110617358964621 Ga
atom 1.6500902864085181 15.7230178941524059 0.0351240373950716 Ga
atom 1.5808543096426537 15.6766927013196895 10.3607481992371344 Ga
atom 1.6508834580011460 15.6847697821892123 5.1106033846687033 Ga
atom 3.2679116367769292 12.9362154323875131 15.5713172387567038 Ga
atom 3.1742567348550272 12.9050423354101955 10.4097356459822006 Ga
atom 3.1250885110127160 12.9556588153075349 5.2377433742867350 Ga
atom 4.8404473503244345 10.1705803296927062 0.0896716132586434 Ga
atom 4.8126919799051047 10.2150074230363614 10.4273461130552487 Ga
atom 4.8236700104728127 10.1674996917149354 5.1992329547518388 Ga
atom 6.4078341730414232 7.4347023705154704 0.0404493111955681 Ga
atom 6.4294374819216182 7.4743467577526221 10.4015352568009565 Ga
atom 16.0014834888377990 7.4837979428800683 10.3744285568195114 Ga
atom 15.9863908099251741 7.3331713823465803 5.2647620579883920 Ga
atom 1.5992993729786165 4.6566157369660264 0.0126515764607251 Ga
atom 1.5741385234865903 4.6172645897656110 10.4218504542412855 Ga
atom 1.6464671030468045 4.6318595502976452 5.1981592960823200 Ga
atom 3.1744354607218446 1.8634014892692650 0.1245835081963566 Ga
atom 3.2143262872840723 1.8413498482470483 10.3916641595292969 Ga
atom 3.2564945277572757 1.8262568701664701 5.1863592534889484 Ga
atom 15.9721408591577507 1.8786470308562964 0.0367887513194800 Ga
atom 0.0006618987110520 1.9121985185349457 10.4425192732808583 Ga
atom 0.0528453576465163 1.8336395193549071 5.2472235182881377 Ga
atom 1.5800022866602910 10.2036852924149777 5.1647304480664431 Ga
atom 3.2726372501569938 7.3866587240897497 15.5755417571257730 Ga
atom 3.2263018341132255 7.4484337340176445 10.4278252781852903 Ga
atom 3.1678824168234367 7.4210091396089686 5.2008372202828568 Ga
atom 4.8483273431022980 4.6250235217294593 15.5708627875470622 Ga
atom 4.7697704962232779 4.6366239029698129 10.4357573884312718 Ga
atom 4.7850241515863488 4.6508459977094505 5.1867040048595019 Ga
atom 6.3449241091132862 1.7706959375739066 0.0101371877473646 Ga
atom 6.3903454672182596 1.8639874491259387 10.3852001661299465 Ga
atom 6.3797030251239075 1.8493285549649041 5.2263700158358999 Ga
atom 0.0065334460413303 7.3829883917443233 15.5913644658965556 Ga
atom 14.3519655860444342 10.0896320557230705 5.1722938988083111 Ga
atom 8.0089428562237295 15.7150696268147598 0.0155657125984941 Ga
atom 7.9682735305087347 15.7321268982784908 10.4480341082019734 Ga
atom 8.0483831214633526 15.6616601739388823 5.1748764168760877 Ga
atom 9.6357563684414966 12.9482946607001779 15.5869501914019217 Ga
atom 9.6244995989513935 12.9283587246470901 10.3906422989798202 Ga
atom 9.5682145472395579 12.8470818092050827 5.1720824385009312 Ga
atom 11.2546818218679139 10.2535713291140471 0.0153574611045211 Ga
atom 11.0711333904708304 10.2274186658526975 10.3997197612739853 Ga
atom 11.2668464389753176 10.1698710307086913 5.1858762251187205 Ga
atom 12.8585298638349386 7.3871090042844401 15.5477690704562637 Ga
atom 12.7905427300018104 7.3811383215460813 10.4585957018265070 Ga
atom 14.3623029822509771 15.7315019460108463 0.0928980542060216 Ga
atom 14.4229023956724411 15.7418069484869161 10.4897368673506275 Ga
atom 14.4786149539410598 15.7181351769589952 5.2465842900812696 Ga
atom 11.1311157700865770 15.7228657614049769 0.0614965334870244 Ga
atom 11.1833091426240170 15.7808325859214289 10.4079362537263336 Ga
atom 11.1921906055741633 15.6876684322888007 5.1814481004705417 Ga
atom 12.8309830447799396 12.9081873997142349 0.0228970945840922 Ga
atom 12.7827748963481138 13.0117834840373430 10.4453486425447633 Ga
atom 12.7978755099279695 12.9722114111978382 5.2339307948167457 Ga
atom 14.3955937903552496 10.1874564380833519 15.5617621424634649 Ga
atom 14.3722028099251986 10.1903880635343373 10.4315802655543273 Ga
atom 8.0447449784149132 10.2111203562048516 10.4037406854707957 Ga
atom 8.0390872639130286 10.1271699138931588 5.1633829794258039 Ga
atom 9.6631592053294657 7.3565337708180678 15.5879523707397070 Ga
atom 9.6027980374317572 7.4477516046939227 10.4255388986321194 Ga
atom 9.6204913792320408 7.3675546465676272 5.2024299840638681 Ga
atom 11.1856546590300177 4.6215334980582110 0.0160051924202699 Ga
atom 11.1952450768722596 4.6266785148643423 10.3967368096957937 Ga
atom 11.2273516129154309 4.5798814616406025 5.1596817689015406 Ga
atom 12.8227514581901900 1.8418700179110008 0.0150769397741000 Ga
atom 12.7919674559430501 1.8277611065858719 10.3470766048862206 Ga
atom 12.8323254201824319 1.8578721127648112 5.2319163623983096 Ga
atom 12.8042704679732804 7.3462069142175199 5.2085939321672496 Ga
atom 14.4025150232023265 4.5454223769904178 15.5894991141394286 Ga
atom 14.3580089651590743 4.6154313650032925 10.3448931851328787 Ga
atom 14.4400876903106621 4.6583359367356554 5.1847219043862109 Ga
atom 4.7992291767162554 15.7280774349539243 15.6177863280902987 Ga
atom 4.7964813725574809 15.6772298378758652 10.4655393887347223 Ga
atom 8.0207957780321166 10.1853958926316324 15.5462269174798653 Ga
atom 6.3711343882298737 12.9179510698244311 5.2120164503497106 Ga
atom 6.4552980483064655 12.9804028224072354 10.3809058460733166 Ga
atom 6.4419789808982406 12.9726345479846010 0.0033880487783663 Ga
atom 4.7636677739478426 15.7018027957834629 5.1885217408716411 Ga
atom 3.1519943906134045 9.2315137284488422 9.7783708311660416 N
atom 3.2249832373325904 9.2928900950101649 14.9473987196612494 N
atom 1.6151321384007340 12.0377400663116259 4.5459735137472652 N
atom 1.6023137623343757 12.0383152383870815 9.7326630754356085 N
atom 1.5892727754139406 11.9892043575139251 15.0222790610648094 N
atom 0.0450325851071196 14.7463751997451720 4.4999004060100933 N
atom 3.0906683218138165 9.2560851790260497 4.6035908575837796 N
atom 4.8567006829649539 6.5941491675401789 14.9329992777676530 N
atom 4.7873710036199366 6.5407617847339052 9.8412711066390308 N
atom 4.7996914079230075 6.4255338200703385 4.5623470148927039 N
atom 6.3889205753947671 3.6900233761176877 14.9612262822615509 N
atom 6.3420852200572693 3.6592517433086065 9.7589644002850839 N
atom 8.0409887992847295 6.4170948688031988 14.9668874033372461 N
atom 8.0857164157595882 6.3913824445934715 9.8122990384532347 N
atom 8.0765571520794790 6.4438518644290586 4.5626603907672134 N
atom 9.4868107973969771 3.7902485654010110 14.9911133864395296 N
atom 9.6613305527094475 3.7443090053167851 9.7414386836988101 N
atom 9.6733768388318975 3.6250777939855094 4.5435195033736164 N
atom 11.2406876375003328 0.9630311268616895 15.0602378946554776 N
atom 11.1580838156963313 0.9283990480857106 9.6457293620860192 N
atom 11.1782032473521635 0.9500069109504643 4.4979547228538292 N
atom 0.0810918979201019 14.8490538873322393 15.0719217857216865 N
atom 15.9290925410043087 14.8498091903938860 9.7229738588429964 N
atom 3.1654825059171414 3.7863586840718759 9.7965848635476753 N
atom 3.1162241668380046 3.5982870109380092 4.5961698216709150 N
atom 4.7828504684171458 0.9316343532760123 15.0191543632440627 N
atom 4.7972332288662169 0.9132674636108220 9.7653642548073094 N
atom 4.8430531085918940 0.8185071850976818 4.5242514252418644 N
atom 0.0579032872818755 3.6551064420072139 15.0112339301708264 N
atom 15.9795192294982673 3.6716841774819500 9.6949098424181237 N
atom 15.9846271278757737 3.6906096872332208 4.5457735565816026 N
atom 1.6805830701329749 0.9431215995676768 14.9454749230701314 N
atom 1.6175231760445530 0.9102334711648256 9.7985164525122315 N
atom 1.6341720977178171 0.8027381446360123 4.6233918967229615 N
atom 6.5147838368385749 3.6709077399741523 4.6040852503728944 N
atom 8.0157505423946596 0.9066572212508149 15.0210854100747895 N
atom 8.0429361190158382 0.8600351556868191 9.8023772034177004 N
atom 7.9552116632449472 0.9199358600378037 4.6056105047764326 N
atom 15.9347675201088492 9.3174561179508952 14.8774170699071799 N
atom 15.8862907535331903 9.3309486773036863 9.6392259493356818 N
atom 0.0388570789840649 9.2212702169331084 4.4924989711557615 N
atom 1.6451116561239556 6.5571170654501474 15.0226000032002069 N
atom 1.6856308703697829 6.4733000365853721 9.8230389260687883 N
atom 1.5487933842659551 6.5005144427850841 4.5813526831290119 N
atom 3.1567668306448056 3.7424116452132941 15.0461082790227962 N
atom 11.2664121732550466 11.9285501981742250 4.5857076393700655 N
atom 12.7803735659495619 9.2942353842401673 15.0126444907368128 N
atom 12.8158703426474077 9.2324023986269292 9.8495547711306841 N
atom 12.7421958894871690 9.1345418913308993 4.5149614608761874 N
atom 14.3654148398043588 6.4521712606098367 14.9364615016692763 N
atom 14.3695077234192254 6.4263707809110038 9.7954930312682684 N
atom 14.4636403929401265 6.4148859595402365 4.5995723078347828 N
atom 6.5252977103766412 14.8237985823869902 14.9973759736748207 N
atom 6.4492578386467541 14.7877506522635329 9.7607103956017500 N
atom 6.5030489263606635 14.6908888420409589 4.5429470118259676 N
atom 8.0418113158673865 11.9364903098628030 14.8658993068212304 N
atom 7.9907164568118834 12.1515510437287979 9.7422596468839640 N
atom 12.7290889091253803 14.7818019498639703 15.0242631533361202 N
atom 12.7570703925828308 14.7872338515721609 9.8010468585536632 N
atom 12.7951489008133450 14.7621668309795790 4.5884316290893796 N
atom 14.4541198895879361 12.0210701885111053 14.9111845204376454 N
atom 14.3556371823445694 12.0266682266568594 9.6736124744294578 N
atom 14.3029112683192494 11.9510703073024800 4.5350871401118900 N
atom 9.5935939278683726 14.8014944942632098 14.9454315131568922 N
atom 9.5586502155317810 14.7551597675732058 9.7278492947004018 N
atom 9.6681670623514862 14.7433921357840525 4.5383224861869671 N
atom 11.1768381920809077 12.0579736427536375 14.9725063830565457 N
atom 11.2616519909648183 12.0942755221031302 9.7629401893164030 N
atom 14.4214210706914852 0.8798253763109795 9.7079163158249830 N
atom 14.4002559739930689 0.9977625230134376 4.5743908829436863 N
atom 3.2396460142757149 14.7859158336167411 14.8870598828761622 N
atom 3.2017492954768838 14.7498506704900247 9.7935263120215463 N
atom 3.2091317316598658 14.7389491325596307 4.5258713197142306 N
atom 4.9113549097755778 12.0420865656238405 15.0145561861593109 N
atom 4.7749862246190462 12.0195618864911484 9.8563593193076144 N
atom 4.7565716622033447 12.0382707270370215 4.5316079203196944 N
atom 6.4110464038267070 9.3046842690993294 15.0439424324296329 N
atom 6.4495815979481037 9.3212532299580051 9.7544277922136349 N
atom 6.3585240459277168 9.1141219212421287 4.6179396267233743 N
atom 7.9071812305735660 12.0493210743812575 4.5893114885625677 N
atom 9.6690016758496906 9.2633258464724513 14.9898848357513028 N
atom 9.5830205412969036 9.2049945517200857 9.7779439442056990 N
atom 9.5840787484875012 9.1972927905413897 4.5062139362690852 N
atom 11.3462232807850167 6.5529889689255274 14.9543019840029459 N
atom 11.2256086077152730 6.5444603453118226 9.6644668895175059 N
atom 11.2700606507691337 6.4483007125422782 4.4993223168731955 N
atom 12.8282398175057111 3.6565516071714468 14.9290791052911125 N
atom 12.6279833487122382 3.6317290415098498 9.8063882031987291 N
atom 12.8604962327626282 3.6272152870002969 4.6256371921137447 N
atom 14.4309333817602496 0.9671280817276380 14.9405761020773031 N
atom 6.4465827033189846 7.3179910055745925 2.0088341537660850 N
atom 8.0612425221770820 4.6611548854820679 12.3192215606094368 N
atom 8.0708306849948208 4.5694825843739668 7.2334095124173921 N
atom 8.0218880130536352 4.5765557736178319 2.0196547249976611 N
atom 9.6120974828498582 1.7926122357871737 12.3260066243438207 N
atom 9.5736549315208244 1.8519151464043659 7.1574106261244435 N
atom 9.6496672433946298 1.7850538336449635 1.9331417341214152 N
atom 0.0308992578985363 13.0496006805371874 12.3411404929073782 N
atom 15.9372493606285754 12.9803394469308913 7.0804770566529616 N
atom 15.9904893302971907 12.9392893056186935 1.9321148167843094 N
atom 1.4900226165801751 10.2513764723907173 12.3854283514938164 N
atom 1.5431227849566900 10.1661199134806388 7.1565017243525251 N
atom 1.6184140725579588 15.6739264494823392 12.3818533529404569 N
atom 1.5895306652595600 15.6608632546072783 7.1129496676496435 N
atom 1.6310807399128411 15.6367502282707047 1.9287968695188529 N
atom 3.2451681150853062 12.8371212802139478 12.4727699558190803 N
atom 3.2563476338551025 12.9932139019978941 7.2213008548418829 N
atom 3.2350361306047075 12.9868122159601338 1.9687202291127606 N
atom 4.7931600308361704 10.1847415913545110 12.3348817936280870 N
atom 4.7458466075973824 10.1959168385154211 7.1733611620570805 N
atom 4.7389037963704439 10.1843192029206264 1.9567453884165038 N
atom 6.4453907290460464 7.4647302122510251 12.3372421316915606 N
atom 6.4373658875131854 7.3592346849100707 7.1866477519482315 N
atom 0.0154807716488448 7.3683248900053737 7.1121285844528543 N
atom 15.9805085950083647 7.3765531662358939 1.8931996275175107 N
atom 1.6629084484502963 4.6411544265976730 12.3729274214093632 N
atom 1.5003546447260281 4.7220280068694560 7.1761782051390037 N
atom 1.5482245269889421 4.5696518083995707 1.9727752160755374 N
atom 3.2740424952916878 1.9118847071815217 12.3555661060630193 N
atom 3.2024162421882925 1.8498438752377886 7.2686083862176689 N
atom 3.2354775764445760 1.8291310332693642 1.9540425860133954 N
atom 15.9665081456379632 1.9085745030445882 12.3984700167063266 N
atom 15.9114158736374751 1.9355671977257751 7.1678643222865226 N
atom 0.0277018933462283 1.8695506164580333 1.9422847987678165 N
atom 1.5875257742646243 10.1846751677250840 1.9066824693575855 N
atom 3.2994985813132924 7.3537574536718751 12.3872801700846509 N
atom 3.2253007434268710 7.3704730216175696 7.2237631896340933 N
atom 3.1865453989414894 7.3961175136141222 1.8964235625179979 N
atom 4.8892645531388732 4.5805652783516457 12.3757354150948373 N
atom 4.7313273913373841 4.6228695449652477 7.2339930657539151 N
atom 4.7755736609582486 4.6445505815344834 1.9278180733904877 N
atom 6.3730142296564321 1.7578781350824850 12.3421172902234062 N
atom 6.3887427360523166 1.9101072163613981 7.1316883510453177 N
atom 6.4653026526305846 1.9025184839565810 1.8709118486042717 N
atom 15.9864444720574106 7.4084983654167385 12.3282494266328211 N
atom 14.4664715481597437 10.0399102838963739 1.9888970802397123 N
atom 7.9376187144892070 15.8499889137327052 12.3796718236976595 N
atom 8.0103359721338876 15.7105128705652994 7.1832309810556811 N
atom 8.0408268863269132 15.7216173600062650 1.9554994980940035 N
atom 9.6319246909659171 12.9459724890795886 12.2878609822909084 N
atom 9.5538464480479437 12.9418987227525157 7.1543196976039285 N
atom 9.5636292274031174 12.9676001817006821 1.9882722678863987 N
atom 11.1741557189253982 10.2578158780431750 12.4389365423924900 N
atom 11.2662497694220942 10.1973764608786794 7.1249568878193204 N
atom 11.2316853861903834 10.2163475624490374 2.0077802748208970 N
atom 12.7527202365680896 7.3730199304582236 12.4485367811279186 N
atom 12.8144069367239268 7.4283315135118482 7.1493096517643595 N
atom 14.4885349370254968 15.7020705081082230 12.4189790877464095 N
atom 14.4168991477117743 15.6723453245934845 7.2018092138900531 N
atom 14.3050177161124488 15.7652250949880077 2.0013409067496508 N
atom 11.1244512362554655 15.7250475862727690 12.3279238833875464 N
atom 11.1707557212249675 15.6812726530945561 7.1721959175233927 N
atom 11.2038745473574703 15.8097350266646153 1.9794829661310649 N
atom 12.7839355704017699 12.9958387578632273 12.3591439697301286 N
atom 12.7544673731172598 12.9866281119611369 7.1635287176643825 N
atom 12.8427846585458756 12.9953831115533536 2.0632536204751442 N
atom 14.4111319410482785 10.2585928347796305 12.3425568905038023 N
atom 14.3752447310692801 10.2214331243820631 7.1481095427589789 N
atom 8.0133177484033524 10.0892333067751725 7.1716250080023691 N
atom 8.0304460637589710 10.1942825047048178 1.9520204552115277 N
atom 9.5831160705857918 7.4044208206129891 12.3118877385495562 N
atom 9.6957751251560360 7.4033881683637253 7.1942842486749639 N
atom 9.4815788299149553 7.3370568097482938 1.9270772453160416 N
atom 11.2057881535719730 4.6558711687218146 12.3740856618714226 N
atom 11.2048715162365031 4.5593443204711157 7.1649311505141071 N
atom 11.2069552004158659 4.6383527579308872 2.0279851570620071 N
atom 12.8753102466581328 1.8067629330172068 12.3896481118115709 N
atom 12.7950839223415898 1.7267293520699012 7.1169654918221967 N
atom 12.9116849446807525 1.9609953415267685 1.9455389372757159 N
atom 12.7154145810354056 7.3512928903898667 1.9461797280775577 N
atom 14.3822821710352660 4.6086075567090656 12.2952617926253609 N
atom 14.3474730591992916 4.6642840571981337 7.1685784689927488 N
atom 14.4243756575279676 4.6766927610951630 1.9464952282925951 N
atom 4.8034727970632822 15.7259315168231169 12.3569940841554331 N
atom 4.7571158477762410 15.6492754900254543 7.1892755673507232 N
atom 4.8887881040779773 15.6851780687454756 1.9717500030017741 N
atom 6.5027071560455125 12.9514681150527142 12.3729540798578288 N
atom 6.3738187835494893 12.8980076148248912 7.3278778691029034 N
atom 6.4596356119567631 12.8694455353639086 1.8841695013091482 N
atom 8.0510225749991235 10.2263747416604929 12.3528435892081472 N
