#===============================================================================
# Created using the Atomic Simulation Environment (ASE)

# Thu May 11 08:59:15 2023

#=======================================================
lattice_vector 15.6273739999999997 0.0000000000000000 0.0000000000000000 
lattice_vector 0.0000000000000000 16.2404434541285205 0.0000000000000000 
lattice_vector 0.0000000000000000 0.0000000000000000 15.2445761999999903 
atom 15.5242741084265568 14.5814703472527896 2.4840714101451140 Ga
atom 1.4907614721173255 11.5538387918101950 12.8451147272966271 Ga
atom 1.4946713151917497 11.7948991105019143 7.4233376404613312 Ga
atom 1.6091160000024098 11.8988705414784626 2.6475270525314403 Ga
atom 3.2709937321365259 9.0432766791047534 12.7711994735891885 Ga
atom 3.2299105888089592 9.1295481422857883 7.5870679143725264 Ga
atom 3.0733746129878874 8.9656770731385151 2.4939563345469318 Ga
atom 4.7437384841170864 6.2897603541656126 12.7664028983890621 Ga
atom 4.8055943371580891 6.3503727423152672 7.6085006554405936 Ga
atom 4.6930326551139387 6.4441228192413798 2.3616014829032559 Ga
atom 6.3473419507289899 3.6396538959865232 12.6034955194630189 Ga
atom 6.2462666437423513 3.7085863843707445 7.6491219153294523 Ga
atom 7.7925543269361368 6.2279036368147018 12.6717279479838751 Ga
atom 7.9146718523824449 6.4408057222414241 7.4417020538018566 Ga
atom 7.8712112797368707 6.2761013964362276 2.4517609246584464 Ga
atom 9.3465871049897338 3.5251389258636969 12.7589486701608212 Ga
atom 9.3242468107607390 3.6243542211689412 7.5468548349784985 Ga
atom 9.3792752805980921 3.7106834141976428 2.6357284842189075 Ga
atom 10.9672598093488975 0.8744936669358612 12.8157367564607654 Ga
atom 10.8773505433025086 0.8935089935536639 7.7563433417178231 Ga
atom 10.9340734377409419 0.8360870369541721 2.5746290275959440 Ga
atom 15.5973907159994631 14.5299143474978720 12.7370282321666330 Ga
atom 15.5379859375682017 14.5091206704680520 7.6514217636272921 Ga
atom 3.1136893759565201 3.5935019253379754 7.5107338057372655 Ga
atom 3.1582864137200475 3.6374029556322691 2.4462506131764412 Ga
atom 4.7421398335350036 0.9045901100901881 12.7645630392204925 Ga
atom 4.5630738962195299 1.0248942708252018 7.4605589915807959 Ga
atom 4.7197754552887430 0.9969061771628658 2.5009263110964439 Ga
atom 0.0682675418993726 3.7315384682621628 12.9002628255192811 Ga
atom 0.0113310723898754 3.6148182822565071 7.5628107681594878 Ga
atom 15.5382278437901640 3.5821409004728286 2.6642548516036930 Ga
atom 1.5559646514427785 0.8319140191226130 12.6598030652842333 Ga
atom 1.5014930213614213 0.8289220946479111 7.5226240963365525 Ga
atom 1.5124326100815884 0.8009708189145769 2.5396295962958342 Ga
atom 6.2424278060842546 3.7148373100636789 2.5696356389559885 Ga
atom 7.7147116661637574 0.9590580526568001 12.6140571378438651 Ga
atom 7.8342679369613029 0.8225545565220606 7.5866113570431013 Ga
atom 7.9126963703941788 0.8977947536952913 2.5455216233880691 Ga
atom 0.1342476814737186 8.9396072290712176 12.7465768217140543 Ga
atom 15.6222360775550797 9.1450615681273515 7.6934829574262391 Ga
atom 0.0307858973417780 9.1615225692681275 2.5277321218820936 Ga
atom 1.6944560251164476 6.2757405417023291 12.6717416870343893 Ga
atom 1.6398742452559785 6.3255844173436602 7.7683467901132888 Ga
atom 1.5134184720081576 6.1771264467420259 2.5143809419592089 Ga
atom 3.1105371279404164 3.5235428329141691 12.6913959484359893 Ga
atom 10.9137814400637190 11.7456824419353065 2.5539601376574437 Ga
atom 12.5996862316681035 8.9995265961979385 12.7441859820677106 Ga
atom 12.4185344420023682 9.1698317236635400 7.5686379345041424 Ga
atom 12.5694212756881107 9.0161343802993859 2.4374625896376312 Ga
atom 14.1795947057670286 6.2816993933012411 12.8466206826591005 Ga
atom 14.1823175539620649 6.4397946393977907 7.5374623441124493 Ga
atom 14.1087370199103912 6.4241773379517495 2.4157439293077045 Ga
atom 6.0588947118480592 14.5316292449755853 12.6990808210901349 Ga
atom 6.2688844296637320 14.3395820741968087 7.6814138222311348 Ga
atom 6.2589362704590465 14.3827208291119337 2.4572034767426567 Ga
atom 7.8306024328043344 11.7230698322904967 12.7234073273701895 Ga
atom 7.8353847409584132 11.7126210429165987 7.5928574783475034 Ga
atom 12.5281679184797312 14.4667611262497200 12.7479442124007409 Ga
atom 12.6170723214816327 14.5727818301042102 7.7498779269231868 Ga
atom 12.4283998499718518 14.5062487559960580 2.6555204346957080 Ga
atom 14.1032599424035894 11.6601618153178990 12.6227225842086046 Ga
atom 13.9970962027950190 11.8156901292607088 7.7260803238954718 Ga
atom 13.9770444613762930 11.8199602654327975 2.6332836310644558 Ga
atom 9.4291603312256527 14.4649801246285090 12.7267895401044271 Ga
atom 9.4207770333256491 14.4790967384341336 7.7268107607451864 Ga
atom 9.3208642482046944 14.2891588338261872 2.5962026034779360 Ga
atom 11.0041746297154504 11.6388836128671684 12.7336888732927065 Ga
atom 10.9340063669170178 11.7362669275466587 7.6094065494245200 Ga
atom 14.1060298701149893 1.0083488629160073 7.6395147058061559 Ga
atom 13.9413107017807860 0.8921946545851005 2.5853748799493657 Ga
atom 3.1516095329685712 14.4671070731734623 12.6937624889147926 Ga
atom 3.1041008807497561 14.4689933122592418 7.6314410914188997 Ga
atom 3.1539621278993848 14.5873083880622829 2.6385909621095287 Ga
atom 4.6186074746520616 11.8338168763388385 12.6419645155120079 Ga
atom 4.7151661661473936 11.8097244745520520 7.6276852362719429 Ga
atom 4.6132156074152713 11.6284504170004475 2.4733592575898031 Ga
atom 6.3936447072005684 8.9478767850385896 12.5780156436876407 Ga
atom 6.3183070200915186 8.8223773799898844 7.5378731485738610 Ga
atom 6.2901459653117664 9.1366549592124411 2.4237388721014654 Ga
atom 7.7047477165645271 11.7858913025791381 2.5417787099858078 Ga
atom 9.4882376696589219 8.8171721065585889 12.7419140987529360 Ga
atom 9.4798520617794075 8.9930527333777164 7.6132723584612672 Ga
atom 9.4817588832888244 9.0848585357596683 2.5124837939665845 Ga
atom 10.9564531715946067 6.2389871777939723 12.6662130004626707 Ga
atom 11.1035730502640302 6.3239501967743816 7.5836099168156732 Ga
atom 10.8582255172597577 6.3944686008315594 2.5493704129883135 Ga
atom 12.4996739841390880 3.5444949971481652 12.6411823608961988 Ga
atom 12.6135957177162297 3.5340345444409289 7.4526839861122678 Ga
atom 12.5420154701298490 3.6317875971594282 2.5291416081711895 Ga
atom 13.9764066199872889 0.7744252345440318 12.7285039395594861 Ga
atom 6.2191482558537334 7.2878975157245440 4.8919178120413322 Ga
atom 7.9628527209474216 4.4840408514418764 0.0350491113226351 Ga
atom 7.8066778031427582 4.5679938188464861 10.1003680660347257 Ga
atom 7.8308824767470977 4.4204594153941130 5.1590390304424769 Ga
atom 9.3412480044493549 1.7754078185253437 0.0735068987623670 Ga
atom 9.4181268016549691 1.7023137168126212 10.3395223335443873 Ga
atom 9.5164008446546688 1.8185178725180733 5.0163766255626676 Ga
atom 15.5738325481944262 12.5243298003023327 0.0755316721890677 Ga
atom 0.0378333906453383 12.5952567198851373 10.1729875574236601 Ga
atom 15.4418149077786921 12.6731653361897010 5.0702138738297169 Ga
atom 1.6090587576573394 9.8784283122438605 0.0633662956449800 Ga
atom 1.5925002603243947 10.0885665321640641 10.1966688096598084 Ga
atom 1.6106659649874275 15.1945951523279525 0.0046818930504488 Ga
atom 1.4653585856877291 15.3463370932089198 10.1591336207985421 Ga
atom 1.4584306752595715 15.2920294268662893 5.0440387083686851 Ga
atom 3.1889888207446613 12.5578415919191979 0.0256355172444713 Ga
atom 3.0534524689591800 12.7255444106488866 10.2539476696697243 Ga
atom 3.1289530277341338 12.6423101748640363 5.0419783000554528 Ga
atom 4.7378299130575598 9.7583905505453306 15.0396836450022686 Ga
atom 4.7273581424900142 9.8929670429510495 10.1776198197932448 Ga
atom 4.6228160252352657 10.0639036559356736 5.1029137620145288 Ga
atom 6.3639980343074827 7.2056215252454985 15.0971018555070025 Ga
atom 6.2580590064606874 7.1002009361670551 10.1779569197041670 Ga
atom 0.0887667920968690 7.2648702496378883 10.3211362986208197 Ga
atom 0.0219110075988717 7.1596839655433921 5.1128176357663468 Ga
atom 1.4872942072428101 4.5919366111785136 0.0319014949965858 Ga
atom 1.4128433858946579 4.5793958407928121 10.1001761468683728 Ga
atom 1.4794581743092678 4.3001738688213598 5.0451396373696324 Ga
atom 3.0220948437048585 1.8577409880112938 0.1319945653239968 Ga
atom 2.9510967797750078 1.6928802105919347 10.1225292679012995 Ga
atom 3.0582569295131816 1.6920881171619102 4.9033390154808938 Ga
atom 15.5163161549978099 1.5865753903283555 15.2215487901723847 Ga
atom 0.1563536810615800 1.9158803780802562 10.2846123474676236 Ga
atom 15.6094583237357618 1.8614723391362227 5.0975148475152094 Ga
atom 1.6255689433251805 9.8927905968574361 5.1539584753352594 Ga
atom 3.1129337907094530 7.2036204018163623 0.1258539949631115 Ga
atom 3.2087159705815442 7.2131285393952584 10.2699803591094039 Ga
atom 3.1458554718209402 7.0758949990581232 5.0318483518855048 Ga
atom 4.6862809708700954 4.4495780212231359 0.0421596406623270 Ga
atom 4.6160219016369926 4.3851776450107858 10.1407627751453759 Ga
atom 4.7067639700057207 4.5271574610395051 5.0872465665041098 Ga
atom 6.3008277977963694 1.8249662163843854 0.0164923266790061 Ga
atom 6.3135129255986611 1.8425737899750296 10.0379295113993017 Ga
atom 6.2724111961344953 1.7785109548812064 5.0943589634693325 Ga
atom 15.5373774253459302 7.2992479200191713 15.1715410405147182 Ga
atom 13.9070808395526573 9.9399074620693177 5.1222107305732658 Ga
atom 7.8656425282695492 15.3491533434276413 0.0002475238871640 Ga
atom 7.6821377615249462 15.2457173094289562 10.1576485181924490 Ga
atom 7.6892454405535267 15.2843453236681430 5.0621075407451821 Ga
atom 9.3539151285982225 12.7209554618063159 15.2163300655804736 Ga
atom 9.3620655244938096 12.5940127510708528 10.1830346171309696 Ga
atom 9.2186458418708739 12.5894882842840854 5.0111134578118470 Ga
atom 10.9160372460429134 9.7854933756922993 0.0279857949636592 Ga
atom 10.9209580396633186 10.0019758643496086 10.2759830471097189 Ga
atom 10.9105969925556270 10.1096469205676147 5.0991002307774691 Ga
atom 12.4112692940922305 7.1929292116377326 0.0078531636115730 Ga
atom 12.5276800498368068 7.1482973904824325 10.2171009953279039 Ga
atom 14.0832043209416859 15.2824944477690980 15.2153477855196151 Ga
atom 14.1131703303117337 15.5083832275947007 10.0627658310773107 Ga
atom 14.0102169207917449 15.3497678597006413 5.0657582813439790 Ga
atom 11.1050596799776020 15.4654778518674618 15.1414975267681271 Ga
atom 10.9564171357401374 15.2908566801473000 10.1506938275336154 Ga
atom 10.7912390667495615 15.3271197973834425 5.3154247640388297 Ga
atom 12.5797296956779370 12.4888423725280600 0.1408077413185191 Ga
atom 12.4965859994933890 12.7032001567198822 10.1878032787428321 Ga
atom 12.3752735662836493 12.8471071819495997 5.1635454548274122 Ga
atom 14.0064552746836366 9.8961045030282833 15.2080801976898172 Ga
atom 13.9445048930833053 9.8959978739105363 10.1897947725617914 Ga
atom 7.8277096316978199 9.7661470872197853 10.1409061065434241 Ga
atom 7.7674973707826620 9.9492753645321077 5.1185800444066958 Ga
atom 9.3646642722429476 7.1588425389777290 15.2128664111252796 Ga
atom 9.4049177634050043 7.2409753241933634 10.1684322657754418 Ga
atom 9.3198570910235699 7.2664184335694442 5.1931699747758016 Ga
atom 11.0681898177742148 4.4141663238379971 0.1083945909466823 Ga
atom 10.8419562961920839 4.3341866405349858 10.0736338236822913 Ga
atom 10.9589991283359840 4.5382257081013337 5.0116004542429842 Ga
atom 12.5952590463233314 1.7984616985540964 15.2216329964950994 Ga
atom 12.6595773136712531 1.8562374840119638 10.0788340524175677 Ga
atom 12.4983392957651809 1.8165356017494183 4.9857312949614672 Ga
atom 12.5418625543549673 7.2237431812512245 5.0510732502518074 Ga
atom 14.0767024143782375 4.5374284428770810 15.2403785658580126 Ga
atom 13.9828111009492808 4.4303564798136232 10.2886521444962131 Ga
atom 14.0039003987782600 4.6316873132219643 5.0315607789665648 Ga
atom 4.6698736898277646 15.3983371095088390 0.0673424126649104 Ga
atom 4.6823110561643899 15.3902149056491311 9.9520379665783683 Ga
atom 7.7579281128809496 9.8711033755681381 15.1871189709940868 Ga
atom 6.2315886516086909 12.6413055380890320 5.0925146929695151 Ga
atom 6.1327396714362639 12.4809884234803352 10.1609019263673268 Ga
atom 6.2228861058028366 12.5661401982349332 15.0835588734547965 Ga
atom 4.7063166673377914 15.2352347101358472 5.1802930537166736 Ga
atom 3.1812421121732997 8.9300398699524521 9.5187880173353090 N
atom 3.2013784506509113 8.9344206678577578 14.7271646282887048 N
atom 1.5162179346386349 11.7919941974756295 4.5523487457972518 N
atom 1.6265787955236819 11.8702184383442759 9.6844166275946986 N
atom 1.6724630808495564 11.7424171925220069 14.9062534366930439 N
atom 15.5831533149028978 14.4162614460125500 4.4660565357137871 N
atom 3.1803584004312255 9.0511846569378793 4.3856722748114780 N
atom 4.7116581492025809 6.2788374868120265 14.6165965974337695 N
atom 4.5862407280063513 6.2471886878818417 9.4081276012655390 N
atom 4.6770479373924037 6.1717130435753651 4.4171781989273962 N
atom 6.3271728526530531 3.5596132253845396 14.6641188732279595 N
atom 6.1915569544564129 3.6816855572530396 9.4824062573265628 N
atom 7.9356812993563608 6.2127262750447727 14.5006357828140384 N
atom 7.8391523372615275 6.2964247023679016 9.4763301805712707 N
atom 7.8408698700961725 6.2766872226445445 4.5118814969371339 N
atom 9.3962335637472627 3.6625135305573924 14.7321605479182658 N
atom 9.3112482166988730 3.5023190863258917 9.4896193721287077 N
atom 9.3578126968051212 3.5949459531081436 4.4140511846978674 N
atom 10.9969473798959587 0.8411973620413468 14.7031227601916363 N
atom 10.9174629563753260 0.8656297105958025 9.6078496286418957 N
atom 10.9707457021601122 0.9931998709685431 4.5383992313411960 N
atom 0.0072000160570183 14.4473239639656246 14.5431132014648750 N
atom 15.5727952795183526 14.4555339097105939 9.4342798572408721 N
atom 3.0443786623502631 3.5578053241695318 9.5193389585076886 N
atom 3.0577255218870607 3.4838859062544949 4.4146170263257511 N
atom 4.6376001661413273 1.0181669831497167 14.5748842086266386 N
atom 4.7116146497011639 0.9841715347523620 9.4707610163627081 N
atom 4.7066389375316726 0.8403584665619509 4.5464851474788546 N
atom 0.0235475102069472 3.5272539076375677 14.6743439051434432 N
atom 15.5393289661250282 3.7044298330393812 9.3693554273952717 N
atom 15.3853030266557500 3.5291968720497273 4.5005841300115987 N
atom 1.5548595759140917 0.8603669919218414 14.7207176327960987 N
atom 1.4572861067690499 0.7206824157598810 9.4097164797616966 N
atom 1.4746754899780430 0.8765148148753001 4.3782494791793143 N
atom 6.1587373315649820 3.5746589488172265 4.4949280221884589 N
atom 7.6711764108447937 0.9279815933844487 14.5965861623111728 N
atom 8.0219325926584979 0.8402369208096405 9.5156292785230168 N
atom 7.7151751181445061 0.7737185862263837 4.4151981133057818 N
atom 0.0383075080241120 9.0313932819142000 14.7470604128099705 N
atom 15.5984784027421952 9.1258368324337358 9.7519649189257009 N
atom 15.5321574993175098 9.0485706717349821 4.3480103039877118 N
atom 1.5586097853068472 6.3799379909299407 14.5893485108479091 N
atom 1.5887422383932510 6.4836962447463735 9.6456949361761737 N
atom 1.6215291832792211 6.2858519151638852 4.3392452806113182 N
atom 3.0696772691076490 3.6063495811342858 14.6426561710404357 N
atom 10.8803575093673128 11.8738028975025127 4.5216522109663746 N
atom 12.4924045587257044 8.9609583433623055 14.5687699764435337 N
atom 12.5194071504515136 9.0350581589198136 9.5467251124936983 N
atom 12.2742423509138465 8.9667986838255764 4.4745098781711423 N
atom 13.9843437870995775 6.3215730041650540 14.6091249509475851 N
atom 14.1252668046004199 6.2842483071375375 9.5342464088921162 N
atom 14.0834434200828404 6.4011572652640387 4.3741626439179777 N
atom 6.3000463257030059 14.4623008525327315 14.5706125569002118 N
atom 6.2578716831582328 14.2113099239173337 9.4919861449121381 N
atom 6.1427351688112912 14.3937086204684501 4.4002950999441328 N
atom 7.7477059326817486 11.6215533998051885 14.6130772941933156 N
atom 7.8387637203743523 11.6697420288930083 9.4499414888459352 N
atom 12.6822111752814575 14.3143986416476121 14.5656346968615100 N
atom 12.6438605953883911 14.5509126307120855 9.4533291865953064 N
atom 12.4063522985713064 14.4808648188574338 4.6205674074774929 N
atom 14.1576789807988721 11.6839045255276996 14.6788507246501112 N
atom 14.0437164354864308 11.7085128054077909 9.6132035919324146 N
atom 13.8668620067104875 11.8514280166175094 4.5737558969326502 N
atom 9.5829239564828885 14.5967811284925943 14.4839334497618140 N
atom 9.3065781450235594 14.4606963198164600 9.5642383044913455 N
atom 9.2397733122595387 14.4380942970653354 4.4688875892836961 N
atom 10.8589465011523068 11.7109351470191481 14.6659464696766619 N
atom 10.9514096094912716 11.8288802861406364 9.6701214810358405 N
atom 14.1954280673659259 1.0708591737424580 9.5468807464298369 N
atom 14.1468621974702113 1.0644077610216989 4.4169905203899287 N
atom 3.1186571525845617 14.4029451182839114 14.5604502554991360 N
atom 3.0553289294637103 14.5781150472860315 9.6226776878807545 N
atom 3.1150203248528205 14.4370415123585456 4.4979339798251461 N
atom 4.6653368600709646 11.6029815488853458 14.6096633468754131 N
atom 4.7250386269457936 11.6739856127415180 9.5236889550620987 N
atom 4.6875552558327875 11.7203792431686988 4.5038611146106433 N
atom 6.3056289789595334 8.9053178880524495 14.4055148973380724 N
atom 6.3030965611695864 8.9561887237940443 9.5430193232250389 N
atom 6.1935781688156117 9.0913394443215338 4.3539536786920277 N
atom 7.7683052450301346 11.7907511271643646 4.3670691313687868 N
atom 9.3750080650618308 8.9119380634224026 14.5817893077708209 N
atom 9.5257506231349343 9.0851582539618079 9.5265255195639860 N
atom 9.4287046220226944 9.1143837745433878 4.4681044909196217 N
atom 10.8772011901164856 6.2179145110276544 14.6242680560942961 N
atom 10.9009246382125458 6.3244886239092910 9.5899712481312314 N
atom 10.8322166346024442 6.2568238967119552 4.4529767134751941 N
atom 12.5743017890516118 3.5741560709861555 14.4918879206217248 N
atom 12.5419086407299893 3.5784871296437206 9.4546828303341783 N
atom 12.5312974815089131 3.7791598887514479 4.4514204853197885 N
atom 13.9506888684743693 0.8111494490408908 14.5885746473279614 N
atom 6.3714049173666769 7.2513900500220165 1.8165936579775719 N
atom 7.9249613091565143 4.4917059306498457 12.0858631105595844 N
atom 7.8274313731372169 4.6348413941488928 6.9971329741456270 N
atom 7.8983969448907736 4.6184706655255621 1.9934676363717858 N
atom 9.3695304206834464 1.7023183089498561 12.1243093539491671 N
atom 9.4426877258721280 1.8138478296104914 6.8523104984238898 N
atom 9.3998683899805737 1.9555798094565542 2.0220684992432378 N
atom 15.6074004333900067 12.7155435101328607 12.1831054222135631 N
atom 15.4964865557108133 12.5733864731966722 7.0472187101762591 N
atom 15.5423528887398152 12.8305228090273378 2.0452134517785034 N
atom 1.5014997751889774 9.9225888037603198 12.2248622367227338 N
atom 1.5639378129708945 9.9854784911334349 7.2114593443524173 N
atom 1.5057721395824171 15.3094443862473302 12.0055124171527385 N
atom 1.5689740543660256 15.3256523295999951 6.8883355710142418 N
atom 1.4585656299246785 15.2122630213370016 1.9358206557511219 N
atom 3.0356828477174300 12.6002975317430845 12.2047714708366684 N
atom 3.1612806890755629 12.5745349661444283 6.8939667879569502 N
atom 3.0747950996017490 12.8503151352807485 2.0629495586361939 N
atom 4.8646951021462490 9.8820164094465728 12.0599244853051513 N
atom 4.8731460141127032 9.8545533504287643 7.0309553956042139 N
atom 4.7257109778106692 9.8969850695804151 1.7289011850632685 N
atom 6.2625157794352040 7.1268379746936334 12.0767480444163962 N
atom 6.3236137944270672 7.1014856083482529 6.8238596519102668 N
atom 0.2431933863220314 7.2978915329285297 6.9144979582352111 N
atom 0.0755510155604603 7.3386072525943504 1.9760593836770550 N
atom 1.5693866931446243 4.6333280949859406 12.1354143234689182 N
atom 1.5854452439686104 4.6204398917556606 6.9335239608714838 N
atom 1.5542293162177829 4.3270891246837468 1.9105499064760814 N
atom 3.0881434725768950 1.7291476730300186 11.9779766557634080 N
atom 3.0489494856214310 1.7974602027130133 6.8598492702113969 N
atom 3.1759825738246015 1.6928591850304411 2.0170030998691169 N
atom 15.6172118746890671 1.9674799452866283 12.0738621239311517 N
atom 0.1027408470102469 1.8637300275646076 6.9392698108124602 N
atom 15.5931364789738680 1.7317379577815524 1.9948593065448086 N
atom 1.6290223736622698 10.1047994491022539 1.8575725347422145 N
atom 3.1710051562585391 7.2525121016460483 12.1876815335227953 N
atom 3.2285912997125266 7.1691340418830132 6.8748837421776043 N
atom 3.1056274606444636 7.2296592597900666 1.9833857185516051 N
atom 4.6867366816390739 4.4835881235152106 12.0034996640367169 N
atom 4.6873569479150650 4.4512582859072740 7.0518317047168297 N
atom 4.6366467966771880 4.6400760615550629 1.8474184798342652 N
atom 6.3011344888310754 1.8728243654659285 11.9414972907147678 N
atom 6.2900501113717215 1.7697430339349662 7.0025295207119385 N
atom 6.3541322116204668 2.0038262675165623 2.0545611961040957 N
atom 0.1038006340049577 7.0734716607420056 12.1586511632720118 N
atom 14.1154593141421660 10.0018186814060268 2.0357479214287046 N
atom 7.6253645815468634 15.3861440982955546 12.1123996160952512 N
atom 7.9096267777744984 15.3695472621503644 6.9484628298974105 N
atom 7.8283948442964029 15.2231988656511987 1.8842980205202891 N
atom 9.3346749594681224 12.6403406312035891 12.0962710265035298 N
atom 9.3148130760225278 12.5500053941250513 7.0711431921753345 N
atom 9.3131611202341009 12.6320674611803394 1.9809997904412364 N
atom 10.9171463198080492 9.9102420005422740 12.1582124765522277 N
atom 10.9138104002634595 10.0647421113381910 6.9456746559363625 N
atom 11.0121216338783618 10.0279656896966163 1.9541865110407424 N
atom 12.6063758363393816 7.0925618773311649 12.2258192772636676 N
atom 12.6295240066236243 7.4177980524989833 7.0359848897223838 N
atom 14.0440655098950309 15.3490929185319747 12.0027994984139177 N
atom 14.1933941740621936 15.4910443963211826 7.0285782010107836 N
atom 13.9596405227137943 15.3767296655082593 2.0195442124320389 N
atom 10.9792264241660344 15.2894938582330759 12.0559157138005357 N
atom 10.9275416242828438 15.3339623967611107 7.1016103588272630 N
atom 10.7741704727757206 15.3310605203700199 1.8735556287469479 N
atom 12.5703643146516644 12.6363582146433036 12.0366341843515965 N
atom 12.5033646281143369 12.6920106212188415 7.1220132164381784 N
atom 12.4674913399002865 12.8083279778529544 1.8850207524954798 N
atom 14.1507814200557540 9.8698916509065775 12.1028228347018398 N
atom 14.1228954107248992 10.0118044080776798 7.0353938728498244 N
atom 7.8298652235206889 9.9879326873699945 7.0409022397701237 N
atom 7.9282350521036431 10.0311304311855078 1.7735176555982515 N
atom 9.4604161225682120 7.0994249125463682 12.0336710331670282 N
atom 9.5486410565123272 7.2008535659041542 7.1827175077054104 N
atom 9.4878842444445350 7.2957631362722779 1.9276997442449821 N
atom 10.8704972587567674 4.4426702293209361 12.1098306089003920 N
atom 10.9589352910373350 4.4073961693273604 7.0347446689824178 N
atom 11.0002867777612927 4.5369568561848279 1.9801567929090811 N
atom 12.6203459730850405 1.7867598537390592 12.0128782267502974 N
atom 12.3297340988094355 1.6993683317104606 6.8363606229283143 N
atom 12.4661227109797483 1.7893646655731090 1.9639718105423583 N
atom 12.4772891494614804 7.2953234206282129 1.9144792205331123 N
atom 14.0825730032920049 4.4432351802141099 12.0694981460585069 N
atom 14.0842424710704144 4.5262549267784520 6.8479786402168683 N
atom 14.0311996673327997 4.5644336282788860 1.8354742053182698 N
atom 4.5381012897964323 15.3696609507512836 11.9516923445563830 N
atom 4.6666836580565088 15.3221207072669543 7.0241285396324553 N
atom 4.7757499685704428 15.4102663247107383 1.9024289382752102 N
atom 6.1844521514700528 12.7052279295154182 12.1206283993938229 N
atom 6.2834561932192736 12.6160059591914067 6.9755538841807532 N
atom 6.0834625227946830 12.6666675180496888 1.8724658241640360 N
atom 7.9219939754803503 9.8934221557606890 12.0561024476537213 N
