#===============================================================================
# Created using the Atomic Simulation Environment (ASE)

# Thu May 11 08:59:51 2023

#=======================================================
lattice_vector 16.0100851999999989 0.0000000000000000 0.0000000000000000 
lattice_vector 0.0000000000000000 16.6381685999439100 0.0000000000000000 
lattice_vector 0.0000000000000000 0.0000000000000000 15.6179127599999905 
atom 0.0407202678463080 14.7790620670550830 2.6976072098936315 Ga
atom 1.4847503203118442 12.1391251194485594 13.0229154656104793 Ga
atom 1.6886431093807399 12.0293398300965197 7.7031607618117581 Ga
atom 1.5019064084360663 12.0217348355839810 2.5082960049100436 Ga
atom 3.0227138088563699 9.2261814096023613 12.9251799060322625 Ga
atom 3.2876085680892677 9.2543799617232594 7.7162389985452258 Ga
atom 3.3731451679919764 9.3522887671702684 2.7468758002059745 Ga
atom 4.7641037054022055 6.4357465914283738 12.9731456537247229 Ga
atom 4.8172092502514312 6.4062029990308957 7.9260676040973275 Ga
atom 4.7734052934868334 6.5105954257012053 2.5690502709039396 Ga
atom 6.3447412161448549 3.6713004495260715 12.9989397853153612 Ga
atom 6.4040848703856419 3.7885443066490700 7.8620099960741836 Ga
atom 7.9298161709981745 6.5507667836127847 13.1673079254180792 Ga
atom 8.0719771311877118 6.3748604620292744 7.7990870821111704 Ga
atom 7.9526493312879749 6.5332908824040716 2.7618297912617797 Ga
atom 9.5503669899515913 3.6738039173956412 13.1095812162430292 Ga
atom 9.4326779630240978 3.6700968844679394 7.6478765618508646 Ga
atom 9.7199440971378248 3.9696902996414387 2.4666715662989698 Ga
atom 11.2242561729473049 0.9134697975781302 12.8957191626162224 Ga
atom 11.2247754741293111 0.7975451432553031 7.7757758987170424 Ga
atom 11.2096100268272814 0.8875266078764705 2.5592275626526164 Ga
atom 15.9285901805289285 14.8230855135824697 13.0953917891232496 Ga
atom 15.9024545085664304 14.8573154984578277 7.7593922430026057 Ga
atom 3.2886258396743426 3.7451125463366761 7.7361105572099724 Ga
atom 3.0625118621240275 3.7180253137695156 2.4699996667835675 Ga
atom 4.8387816274139119 0.8649883369938995 12.9203242821736062 Ga
atom 4.9839348881893537 0.9780825807166560 7.8059375214177331 Ga
atom 4.8328945618930925 0.7911507566275202 2.4888884361520049 Ga
atom 0.1312986205555795 3.4855934106663891 13.0837704276997311 Ga
atom 0.0867970778345766 3.5306945043011102 7.7544723318135631 Ga
atom 0.0356701643013017 3.7007306501093247 2.6481272767238928 Ga
atom 1.6371361119448751 0.9377362408422402 13.1423033726661931 Ga
atom 1.6594262025551108 0.8294358954587897 7.7647944681780876 Ga
atom 1.6638417126026619 0.8499867859800455 2.6096532491434705 Ga
atom 6.3979662555904246 3.8983176302493692 2.4436969709804357 Ga
atom 8.0203620001514686 0.8117084521399339 13.0373277444911331 Ga
atom 8.1533726442434684 0.9202674205199608 7.8124166457447393 Ga
atom 8.0447293956853176 1.0228297705325047 2.6126815786024817 Ga
atom 15.9829059520779264 9.3568892607224186 13.0200986525029450 Ga
atom 15.8562695831985430 9.3864325509557833 7.9044416138199978 Ga
atom 0.0845196562009769 9.2027667312744370 2.5682614712281753 Ga
atom 1.3812536033447791 6.4951816270731397 12.9250241407151627 Ga
atom 1.4053050933433038 6.4764784898774943 7.7390540987242114 Ga
atom 1.5728016657143671 6.4549710997966789 2.5968426920556542 Ga
atom 3.2580357760414334 3.6720595569913201 13.0014451945867755 Ga
atom 11.1048510913752860 11.9251885834375209 2.5868015070806130 Ga
atom 12.8207024443568862 9.2793056980463362 13.0229632947951739 Ga
atom 12.7571837842736659 9.4854253335281555 7.9368810339083531 Ga
atom 12.8895221223003311 9.2007013414645318 2.7902279129247121 Ga
atom 14.3287100176633349 6.4967289234429106 13.0314082330155188 Ga
atom 14.4376932740657669 6.5281884281830358 7.9301569930569764 Ga
atom 14.4506794345770366 6.6135889572061064 2.4780927350368263 Ga
atom 6.3102962150266348 14.5517236561119905 13.0010192773184290 Ga
atom 6.3561442566060098 14.8111900585600775 7.9713557470669327 Ga
atom 6.3765323963789919 14.7213056399394535 2.5611693083331644 Ga
atom 7.9971785747811879 11.8893332030113275 12.9595353897896057 Ga
atom 8.0794736497937567 11.9217520446513472 7.7393455854703639 Ga
atom 12.5840722416711674 14.9764755686517148 13.0478141377495280 Ga
atom 12.7259128329433704 14.9383798043277132 7.8454746854074067 Ga
atom 12.8733404550467210 14.7585743375606491 2.6173483758539251 Ga
atom 14.4819042823489319 12.1020250869625752 13.1150185785421023 Ga
atom 14.2965629913812702 12.1476628768278356 7.8808302349949049 Ga
atom 14.4203435423275437 12.0923139894916272 2.4609324130000161 Ga
atom 9.4094766595021095 14.7414256111442921 12.9359474997161978 Ga
atom 9.7204463353166464 14.7965389412710504 8.0536115828155683 Ga
atom 9.6422629782182341 14.7423166758280377 2.6774708032299817 Ga
atom 11.1529758835740491 11.8564547979740063 12.9363844879428491 Ga
atom 11.2654933081253485 12.0211690766901746 7.8265169522347806 Ga
atom 14.3408041091477187 0.9401196420493491 7.9075344139041865 Ga
atom 14.4836640441818378 0.8873672109086238 2.6167279365864649 Ga
atom 3.1171145142074095 14.8350799339490980 13.0462656353919115 Ga
atom 3.1806407005327397 14.7766937888188234 7.8154763151200051 Ga
atom 3.3426905099718063 14.7479393847405564 2.6081969441220734 Ga
atom 4.8530607566834476 11.7658801288783383 13.0666753950011056 Ga
atom 4.9085331783082458 12.0574614075372963 7.9700184164930929 Ga
atom 4.7413032818580367 12.1277752730276500 2.5883324124832261 Ga
atom 6.4775641985049273 9.1298439021020830 13.1459232773742816 Ga
atom 6.4346487079482575 9.3305098171332990 7.7767920488117692 Ga
atom 6.3923260219227664 9.3084283339524454 2.5742938420375667 Ga
atom 8.0278121910380715 11.9375212553136603 2.6211379183334773 Ga
atom 9.4610295102571413 9.1418006010605843 13.1090845135532152 Ga
atom 9.6518969740836500 9.1363499511843269 7.9460739866843424 Ga
atom 9.7896380871649598 9.2570842954154617 2.6075301495029830 Ga
atom 11.1670574286035933 6.5224356959183343 13.0270671254986592 Ga
atom 11.3823863379858050 6.4687526349081157 7.8077817754529990 Ga
atom 11.1970889062552637 6.5892452954692784 2.6205244840861206 Ga
atom 12.6910218204877481 3.5922329226214527 13.0240367704747637 Ga
atom 12.8748148324497631 3.7807190942277313 7.8200080308279611 Ga
atom 12.8395427398788851 3.5974014549969846 2.4595475896177423 Ga
atom 14.3558685259284378 0.9632685587243762 13.0036258163976068 Ga
atom 6.3666687775561384 7.5344120906043166 5.2473837062910844 Ga
atom 8.1121407265314147 4.7579606844655720 15.5586280450201961 Ga
atom 7.9789180010339722 4.5803465601621074 10.4285099787854030 Ga
atom 8.0026025786383670 4.5123844142825034 5.0974229162884139 Ga
atom 9.6639641271093062 1.8738127552548447 0.0093620155315125 Ga
atom 9.6216309261496029 1.7699920191711300 10.4546647898172012 Ga
atom 9.7705371992488494 1.9417802143748635 5.1284566094479569 Ga
atom 0.1793923933971046 12.9363913972343525 0.0248938540587252 Ga
atom 0.1051549564200290 12.8556015706793048 10.3156943053117498 Ga
atom 15.9383266337097886 13.0536447543010592 5.2503142869087140 Ga
atom 1.5067130517727649 10.1030737607278365 15.5485176688379099 Ga
atom 1.5237115086079935 10.1575054478582167 10.2965330901597021 Ga
atom 1.5368563555554817 15.7062194505194110 15.6060759268403739 Ga
atom 1.4612405563456834 15.6646369467402469 10.5344445538855567 Ga
atom 1.7641422182301001 15.7530838997569003 5.1535986282973392 Ga
atom 3.3649568442545470 13.1312995399202475 15.5643700938425358 Ga
atom 3.0790074109125460 13.0076873432684970 10.4438849793791295 Ga
atom 3.1194378056273493 12.9866419136545890 5.1906534161132702 Ga
atom 4.6924413731926933 10.1772271242092156 0.0746348601640438 Ga
atom 4.8803180142187550 10.1520357594949910 10.4722215364993865 Ga
atom 4.7654827361563692 10.3262461381346373 5.2157643472138426 Ga
atom 6.3774808625870767 7.3534553334470711 15.5766585715880659 Ga
atom 6.4297208632975442 7.3577557839454455 10.4141734401335579 Ga
atom 0.0052231361683704 7.5425597840412379 10.4202323627704221 Ga
atom 15.8353697770806363 7.4052898805384322 5.2516358497568403 Ga
atom 1.5795522430122624 4.4972389890098095 15.5676176629173550 Ga
atom 1.6043629550525247 4.4024384255499056 10.2317219819714751 Ga
atom 1.5296654749271759 4.5938582729511488 5.2201836278002043 Ga
atom 3.2931028167271177 1.8152864994048257 15.5855987563132459 Ga
atom 3.2014833586899512 1.7262413602927549 10.4173923567667952 Ga
atom 3.3855008713539507 1.6758068300172901 5.2427761942747670 Ga
atom 0.0258481286184308 1.8489491655843588 0.0562050880516752 Ga
atom 15.9134167164316160 1.7145913939335908 10.4951967218162796 Ga
atom 15.9352407760597554 1.8871864512043837 5.2520286485575847 Ga
atom 1.4912970678065318 10.2317844579110506 5.2598453072167484 Ga
atom 3.2151164483538883 7.3449100192586947 0.0050604513098616 Ga
atom 3.2579238403650632 7.4859511603050537 10.2602186140565994 Ga
atom 3.3020988534679363 7.4215468805655878 5.2008638618877150 Ga
atom 4.9325885246667189 4.7639995976928819 15.5391529517329658 Ga
atom 4.7104262542697128 4.5783677329054262 10.4644085567429652 Ga
atom 4.7122558170353788 4.7319950049179740 4.9615777925253832 Ga
atom 6.4479174052920909 1.7883757485868150 15.5496998036069911 Ga
atom 6.3742270782594952 1.8551762192862713 10.2855202486920305 Ga
atom 6.4512470376008340 1.8766063893308800 5.1727696816321140 Ga
atom 0.0125230281379659 7.3788325376355806 0.0076888048153563 Ga
atom 14.4281277433220438 10.2064682960318329 5.1526137526794997 Ga
atom 8.0008889364006812 15.5493002999449832 0.0819109826428402 Ga
atom 7.8219754558540835 15.7408649873828725 10.4454040446951151 Ga
atom 7.9902700603597259 15.6094647468462089 5.2269368917373367 Ga
atom 9.7816934150799533 12.9113416077767287 15.5382705017536029 Ga
atom 9.6505570139911079 12.9254659876809104 10.4258236760157192 Ga
atom 9.5712112621464893 13.0819825140307273 5.2307656128399280 Ga
atom 11.2641265120632799 10.1547820892750913 15.6061087311347642 Ga
atom 11.2165197433709540 10.0947686369963581 10.4139703798476209 Ga
atom 11.1731307664817763 10.1412706042066745 5.1862411171832390 Ga
atom 12.8050327558702861 7.4398137776298761 15.5678062753373911 Ga
atom 12.9041183261057348 7.2912278780076010 10.4696556217112828 Ga
atom 14.3304397547623434 15.8439291801134949 0.0201211695202881 Ga
atom 14.4420907406469148 15.6038353824997031 10.3430651357906616 Ga
atom 14.4044676779625984 15.7685570389249019 5.1253779856338557 Ga
atom 11.1147888309853720 15.7262117734421842 0.0240838544802788 Ga
atom 11.2391900390772435 15.5836252198455902 10.3783410150874573 Ga
atom 11.1795585495857885 15.6865058532784118 5.2213234349228959 Ga
atom 12.7843832971488780 13.0867602317678760 15.5315732313205075 Ga
atom 12.7956045250621901 12.9728000523903848 10.5277029646098086 Ga
atom 12.8260646047203206 12.9548260079568873 5.1753215496863483 Ga
atom 14.4174112396969853 10.1181884593892946 15.5427042822097690 Ga
atom 14.2984554983870318 10.3061519776475397 10.5297890468294941 Ga
atom 7.9734609937718250 10.1162251277784723 10.3069572735604478 Ga
atom 8.0823933197797810 10.2440421702506743 5.1382461041059377 Ga
atom 9.5976640023701840 7.3113756050532173 0.0981654267377380 Ga
atom 9.7694173237651114 7.3592554646637440 10.4104656907478077 Ga
atom 9.5660689599716289 7.3140895518909002 5.3337629815016792 Ga
atom 11.3368696734123056 4.6736602172135475 15.6150600874116652 Ga
atom 11.2294804113279092 4.6694276639249672 10.3600386459853553 Ga
atom 11.1592493187354211 4.6452631465172880 5.1244932282367301 Ga
atom 12.6785441414814262 1.7960814712870004 0.1106376713327942 Ga
atom 12.8218545041970078 1.9480113718511125 10.3761537250124594 Ga
atom 12.8575319277242190 1.8621831632999755 5.2895703559888751 Ga
atom 12.8946351784425364 7.4320442103894315 5.2928042598151483 Ga
atom 14.4161224287808984 4.6006885561282802 15.5399801786332148 Ga
atom 14.2886483276278309 4.6477802776321102 10.4636944620153383 Ga
atom 14.3139319743314921 4.7108051241328663 5.3159013360074043 Ga
atom 5.0544892790207561 15.7126377089371196 15.6148987159481027 Ga
atom 4.7224277487401700 15.6685431591146944 10.3859569352812855 Ga
atom 8.0646178167643310 10.3020154303719735 0.0441632625417780 Ga
atom 6.3618390246153345 12.8034204805514289 5.1976209032463565 Ga
atom 6.3932705003678070 12.9051868100783160 10.2317432000237343 Ga
atom 6.3919684314415699 12.9348347675253432 0.0998259251410418 Ga
atom 4.9408163350436460 15.5257982561580636 5.2226878151298735 Ga
atom 3.2538651135540415 9.2905187657527328 9.6454492568611485 N
atom 3.2092467257380086 9.3170099866051697 14.9488559939813825 N
atom 1.6296319828558115 12.1244597135083172 4.5554680997369239 N
atom 1.6602862312043065 12.0147461225222383 9.7546691245561892 N
atom 1.7579045503491373 12.0982702440625669 15.0124148943172173 N
atom 0.0102473652945173 14.8291098632895295 4.6065745791410002 N
atom 3.2175573149697287 9.4535567368731961 4.5888515287101894 N
atom 4.9301469152309556 6.4813825722511860 15.0918397890381648 N
atom 4.8471515772952039 6.3904780936451067 9.7029964348992372 N
atom 4.7297284626440046 6.5049699036548905 4.5526166699877368 N
atom 6.4134892999273765 3.8081532361627826 14.9102449004942059 N
atom 6.3507314527131200 3.8077558932372972 9.7473093770317849 N
atom 7.9789396221130531 6.6721208152349751 14.9383827312623012 N
atom 8.0595938246210661 6.2994390981307991 9.7234799272850747 N
atom 7.8790889061123490 6.5176229216724213 4.5475680915129226 N
atom 9.6628159384078813 3.7974815804305710 15.0692733980007851 N
atom 9.6395952786416537 3.6120030757904051 9.7512240923116167 N
atom 9.5529873247865158 3.8489628067351025 4.4455901281088961 N
atom 11.2220697376621477 0.9184141235771948 14.8236547331107626 N
atom 11.2508405831780962 0.7365189227941225 9.9132172690491185 N
atom 11.4813301349898556 0.9044056773866060 4.5851974493506571 N
atom 0.0716072347636918 14.7970372833256096 14.9945732645829750 N
atom 15.9338161461130667 14.7483721468962017 9.6624483729873951 N
atom 3.2664223769776104 3.6236102749527674 9.6880504272067629 N
atom 3.1192190859719671 3.6712421882595430 4.5029806138030590 N
atom 4.9733478154605919 0.8991046764374310 14.9383266802537360 N
atom 4.8689859345979762 0.9194474984845147 9.8238487747956889 N
atom 5.0163251253141645 0.7522295241322327 4.5642033964835225 N
atom 0.0647792441089598 3.4870547213012872 15.0934767301462038 N
atom 15.8867054006580375 3.5535869428549582 9.7340721108352639 N
atom 15.9216136353808508 3.7718139975630223 4.6356246831276504 N
atom 1.5104988868347693 0.9536158580842612 14.9588730737975837 N
atom 1.5429576204131692 0.8920391491134655 9.7786299106804329 N
atom 1.6086438590373962 0.8979795488607496 4.6210535954753569 N
atom 6.4052045369904418 3.6539568384536305 4.5354828576960902 N
atom 8.0377641256338173 0.8584484542480508 14.9614758856801551 N
atom 8.0314792602195713 0.9236835665263136 9.8166719579133996 N
atom 8.1483050713191325 0.7813736493942662 4.5959418387275788 N
atom 16.0027102692820407 9.2356355720675190 14.9930119900321781 N
atom 15.8626753250000458 9.2680711367607458 9.8152767321125687 N
atom 15.9826168631194339 9.3060423807071651 4.4649261581423092 N
atom 1.5124984305123204 6.4622697619767990 14.9787070877665833 N
atom 1.5901439707972143 6.4308177437729723 9.7899125841557861 N
atom 1.5606094017921024 6.4353180430764398 4.6033910844708466 N
atom 3.3370622620695154 3.7723316595260301 14.8961134855980131 N
atom 11.0758185868916037 11.9233808986183956 4.5366507987637767 N
atom 12.8638940045223151 9.2100747356592763 14.9058480198270651 N
atom 12.7303004239075914 9.3155748609716031 9.9598131382213939 N
atom 12.8440451964520026 9.2944270534089437 4.6180791577830309 N
atom 14.3815533898264984 6.4638469026428806 14.8850053117717582 N
atom 14.5055102418960153 6.4146650937717657 9.8842807194202251 N
atom 14.3750660440802331 6.4345844854782213 4.5219530014946869 N
atom 6.3788712595459298 14.7334835391606642 14.9430934638993111 N
atom 6.3492053389602265 14.7211180042750378 9.8084188303950235 N
atom 6.3888000596958419 14.5390373810505462 4.5592751821651616 N
atom 8.0320383176939742 12.0995909975337295 14.9578337099851169 N
atom 8.0126881709483619 11.9501184723350136 9.6637651767521735 N
atom 12.6327183935544056 14.9484542479321174 14.9883752755473125 N
atom 12.7503485623810544 14.5728382297245123 9.8540122626001736 N
atom 12.7068125733502590 14.7978003723666642 4.6034084901579595 N
atom 14.3437065575162421 12.0636813551464481 15.1249878131685733 N
atom 14.4759787769792148 12.0381090943946329 9.8537150782649920 N
atom 14.4262396425418089 12.0067486797500660 4.5179605338525679 N
atom 9.5277246196473317 14.6744301353442168 15.0306268795420461 N
atom 9.4650717811911065 14.8486052542608356 9.8103890490748320 N
atom 9.5006289944767683 14.8611995011077074 4.6419652274271810 N
atom 11.1330536882288040 11.9325106314341163 14.8311217603332697 N
atom 11.2442339068242259 12.0376229385069529 9.8216327344303860 N
atom 14.3174913634194105 0.8372028562364506 9.9963144711597902 N
atom 14.3474506434807623 0.9185741283612995 4.6369116328083271 N
atom 3.1631309298786503 15.1354442355224030 15.1129322671141306 N
atom 3.0840075145945214 14.8631225032696541 9.7156927487681433 N
atom 3.2812748661707416 14.9148904098580495 4.5391060304667921 N
atom 4.8450886686570138 11.9635495989442564 14.9618247029215983 N
atom 4.7386796140102714 12.0807341021597150 9.6973270346641289 N
atom 4.7086195365868040 12.0452306850632560 4.6415067031311752 N
atom 6.4556516472817798 9.1826977408124666 15.0336304535835499 N
atom 6.4331567615274405 9.3657210747652027 9.6922276353762520 N
atom 6.4035473160806866 9.3481697145955565 4.6758806599087865 N
atom 7.9552101586089758 12.0708199876615794 4.5298571436657165 N
atom 9.5747911639178405 9.3012242783990580 15.0420634841429308 N
atom 9.5320728760286393 9.2840490006102296 9.8378060022954603 N
atom 9.5917802530085439 9.2376757443493283 4.5807439956651148 N
atom 11.1645304384237924 6.4515745284233130 14.9008961486381555 N
atom 11.3455622996229941 6.4744286783226217 9.7794562757839429 N
atom 11.1164878276654111 6.5034406104056455 4.7119133657789884 N
atom 12.7841880770302723 3.7362975161534520 14.9409868275788842 N
atom 12.8331471590255699 3.7737865863184217 9.7570290723842490 N
atom 12.9813430779227765 3.7229902836335063 4.4776786775162325 N
atom 14.4651242972012017 1.1025723666019087 14.9035471160531099 N
atom 6.3485163843563122 7.4151442885159895 1.8415948695053186 N
atom 7.9926883361228773 4.5971264429122529 12.4354503307957547 N
atom 7.9638623472811680 4.6858984372133952 7.0570879188814999 N
atom 7.9817329402106507 4.7579778947332736 1.9527370155868309 N
atom 9.5662392029484362 1.7751756302877697 12.4108029590194704 N
atom 9.7301522734316954 1.7322444119575382 7.1132705680834958 N
atom 9.5764234490235154 2.0705952187823389 2.0819183068258140 N
atom 15.9539750406298957 12.9986303170826041 12.2989365011375114 N
atom 0.0050459298674101 12.8664567454857135 7.2008993214645578 N
atom 15.9576304055180529 12.9138287185331357 1.9414249340916749 N
atom 1.5300019053307272 10.2199340913743590 12.2565013478103264 N
atom 1.4333853117344086 10.2830937089486714 7.2773270407246162 N
atom 1.6048338589410014 15.5695977436676394 12.4713879008901998 N
atom 1.6927942672049596 15.7644007405684050 7.1276554257535363 N
atom 1.6153706407308956 15.5940690848157146 1.8999535454937846 N
atom 3.1954908588348578 12.9320515165253749 12.5343062337890814 N
atom 3.3021596230205352 12.8462335895889250 7.1371739484191155 N
atom 3.1285118897066071 12.9425287990180422 1.8766218408775899 N
atom 4.7504961466407369 10.0449202539319984 12.3664560808154960 N
atom 4.7529120109611736 10.3880659345475053 7.1660351791172348 N
atom 4.7591269680010635 10.2869233819543897 1.8818823158007727 N
atom 6.3599099775703820 7.3597682187363827 12.4506268118658081 N
atom 6.4488199226376235 7.3732708898546120 7.2913706364229949 N
atom 15.8565943664860516 7.6012284566029367 7.2053189874005836 N
atom 0.0953584350233999 7.4325980665036369 1.8816166773555654 N
atom 1.4584770877373539 4.5620548956464919 12.1581260545922607 N
atom 1.6961922264056015 4.6116384241095139 7.1450853458071801 N
atom 1.5930682890828498 4.5228016794689090 1.8358545741186947 N
atom 3.1385243086594588 1.7779181950208580 12.3427798546240002 N
atom 3.2264762581364308 1.8967684417524766 7.2150191063024103 N
atom 3.2867327424808059 1.8281071924496044 1.7472604505690552 N
atom 0.0102087463539276 1.6798605221036111 12.3926778353479641 N
atom 0.0263935072872125 1.7176519249842610 7.2465708006945295 N
atom 15.9537440369510239 1.7294417581076862 2.0104993524427059 N
atom 1.7067643090321589 10.1899553719241958 1.9127981155704679 N
atom 3.0446744836026687 7.2317225688834776 12.3906992001034393 N
atom 3.1362984095219590 7.4410753452979010 7.1615839859057591 N
atom 3.2218757627110213 7.4781245380095651 1.9541897389343343 N
atom 4.8877836016395850 4.4745619328020076 12.2183452281596914 N
atom 4.6247150103341692 4.5791318524705531 7.0376974331680797 N
atom 4.8186661945783307 4.5976565767985251 1.9140824977093920 N
atom 6.5296897878630471 1.6961671567121905 12.4000085067250918 N
atom 6.4964225343041209 1.8657367083716287 7.0880554593426099 N
atom 6.4101421347943779 1.8788497042976491 1.9019768262620911 N
atom 0.0161078893908725 7.4850277670211440 12.3830919795722671 N
atom 14.4067743435363322 10.1126672710475507 1.9552495731036688 N
atom 7.9154746304850923 15.6205066253840918 12.3975829622714162 N
atom 8.0472524996793418 15.7268858533518774 7.3260703354049701 N
atom 7.9766656149909902 15.7773445316303356 2.0574429472196107 N
atom 9.5690801207121527 12.9357758849564402 12.3989045096348516 N
atom 9.6569089172614149 13.0224704397121176 7.2147035462698286 N
atom 9.5353436788036561 12.9349664110301745 1.8709866314289467 N
atom 11.1951687690212509 10.0069313959141830 12.5209586687927743 N
atom 11.3202538781558975 10.2447626318961387 7.1626260378521307 N
atom 11.2102107393762616 9.8263991021118731 1.7838630486911251 N
atom 12.8354909239165611 7.3757781233691704 12.3980465914137099 N
atom 12.9199838341544684 7.5086295537407670 7.2824293527679043 N
atom 14.3976129151772714 15.7061342991682285 12.3785156991497960 N
atom 14.2635359914915636 15.7821684816998218 7.0839433514118051 N
atom 14.4633917994734347 15.6889574577041806 1.9876433869621708 N
atom 11.0073423590263992 15.7392689080476842 12.2998471516782022 N
atom 11.0959401296273406 15.6707346164275769 7.1865939371367791 N
atom 11.2015390302575124 15.8490812617796770 2.0192103112073672 N
atom 12.5800944644640822 12.9644999267795633 12.5428317785282477 N
atom 12.8288095170728269 13.0054470797238793 7.1841022611119589 N
atom 12.6351274098040900 12.9387725240623794 1.8945489419655424 N
atom 14.3074091349186130 10.2835337467092351 12.3765063307608578 N
atom 14.4234109920398232 10.3326644306645878 7.1586826465940527 N
atom 8.1224879081579093 9.9920237963657321 7.2370557531888355 N
atom 8.0207681088372382 10.1341203695368609 1.9956971676763469 N
atom 9.5318319124788076 7.3579024651486833 12.2987747270821117 N
atom 9.6706867456018895 7.2802118658253292 7.2532268536935289 N
atom 9.6002533003192259 7.3300703838875023 1.9613274241550871 N
atom 11.1987976671875202 4.6065297170564081 12.3227254592540429 N
atom 11.2705169794207407 4.5102222691631537 7.1745450258470198 N
atom 11.3118037930535902 4.7750441797925696 1.9634134253726252 N
atom 12.8524999828745230 1.8139853346433730 12.2919772090073423 N
atom 12.7127790282345785 1.8945718112080354 7.1596946433505515 N
atom 12.9139620480537101 1.7785404292566476 1.8566824225419849 N
atom 12.8125637988979921 7.4605654534441959 1.9071831732093705 N
atom 14.5150800975969503 4.4259984972527064 12.3957224452011392 N
atom 14.5518788700150790 4.6499527879701148 7.2860999247880898 N
atom 14.5394786989443716 4.6735165391519908 1.9115387207378867 N
atom 4.7764605707234908 15.5635010839703831 12.4137302952364053 N
atom 4.8262059862716251 15.8386920824128552 7.1930495826591505 N
atom 4.8683023445837668 15.6481133693190753 1.9733728909705679 N
atom 6.3602444076719671 12.8140320236295242 12.2011659980422262 N
atom 6.3776547200128864 12.9479367854281602 7.2266927915083663 N
atom 6.4433450247210136 12.9181949946781742 1.9856008644399392 N
atom 8.0258890555400075 10.0865722073694020 12.2515929984181042 N
