#===============================================================================
# Created using the Atomic Simulation Environment (ASE)

# Thu May 11 08:59:48 2023

#=======================================================
lattice_vector 16.0100851999999989 0.0000000000000000 0.0000000000000000 
lattice_vector 0.0000000000000000 16.6381685999439100 0.0000000000000000 
lattice_vector 0.0000000000000000 0.0000000000000000 15.6179127599999905 
atom 0.0668599348963026 14.7391581891426924 2.6598171471100334 Ga
atom 1.6545095623742465 12.0293166127559754 13.1464644309868106 Ga
atom 1.5936526423797988 12.0519640011355431 7.8377436497750024 Ga
atom 1.6082577135412388 11.9114492003229415 2.5983492222041811 Ga
atom 3.2295900398601400 9.2500787591690159 13.0765411491221162 Ga
atom 3.2627345760500464 9.2197861805564809 7.8292756559771828 Ga
atom 3.2206229497276788 9.2615352126839383 2.6095735123334225 Ga
atom 4.8739658601270897 6.3824408311346907 12.9482306363490576 Ga
atom 4.9412514318970713 6.6043511974100380 7.7882462290635761 Ga
atom 4.7798403859966863 6.4145397213480813 2.4988900488835650 Ga
atom 6.3992513457795219 3.6158095818261362 12.9772495812286550 Ga
atom 6.2117273911082886 3.7852376963071381 7.7889647637648265 Ga
atom 8.0342857254858142 6.3865013785714133 12.9776574517097210 Ga
atom 7.9640677040776318 6.4165399828239593 7.7989579347930773 Ga
atom 8.1351860322314558 6.4705722501712906 2.4162822269482387 Ga
atom 9.7202876936334182 3.7076991928683527 12.9582459088341562 Ga
atom 9.4330304324877403 3.7584240946037224 7.7233239429799578 Ga
atom 9.5214738884175620 3.7175366667969301 2.5651116031576970 Ga
atom 11.2573098863666914 0.9638526743783240 13.0653885974090684 Ga
atom 11.2272438456365293 1.1156143967543419 7.8200437343793556 Ga
atom 11.3437639193976807 1.0078796618134673 2.5047839261110973 Ga
atom 0.1758890160211688 14.9059654533726604 12.9953619255496058 Ga
atom 15.9834386804984447 14.8256252204612373 7.8937455893445119 Ga
atom 3.1021254754458898 3.7425983289498497 7.9002330623067465 Ga
atom 3.2555000829778433 3.6298898508979143 2.6182248090605094 Ga
atom 4.6446822871587798 0.9599277845829683 13.0290238326156498 Ga
atom 4.6743115446511352 1.1775844583690609 7.9072668172360361 Ga
atom 4.7566678131792104 0.9110415452940163 2.6256297732984017 Ga
atom 15.9902729087757081 3.7442579339436484 13.0104163029382125 Ga
atom 0.0358376323281710 3.8253379975316819 7.7441964278519295 Ga
atom 15.9364447900963988 3.6330644532488106 2.6286482803861051 Ga
atom 1.4910579188490414 0.9487793409278402 13.0450533373128010 Ga
atom 1.3947963833444550 0.9795158357650195 7.8729587502555356 Ga
atom 1.6291107808916516 0.9684319940576872 2.6373159363026932 Ga
atom 6.3592706890566850 3.6312267686160817 2.6210601757747103 Ga
atom 7.9837774815622939 0.9900395005877753 12.9720315187671247 Ga
atom 7.9606983177827413 0.8656270028793507 7.8723646789303992 Ga
atom 7.9419505385207589 1.0301538229450777 2.5053979306213936 Ga
atom 16.0086771874593197 9.3402908606709012 13.0732792869089938 Ga
atom 15.9965128971172739 9.1980735871871335 7.7804246970209014 Ga
atom 15.9920565487320321 9.0745179490610575 2.5743068972318546 Ga
atom 1.5797590122003515 6.5790971681466175 12.9823847246631026 Ga
atom 1.6344385511652484 6.5518114100327045 7.8197450014565968 Ga
atom 1.5200533629641615 6.4762369881344171 2.6606890277284703 Ga
atom 3.2408559410391891 3.7053131503007326 13.1436569843238864 Ga
atom 11.1763757529463756 12.0747009581967344 2.6079708912925601 Ga
atom 12.8355580615955009 9.3794751597171224 13.1070448748987225 Ga
atom 12.9645517593165867 9.1949090348863844 7.8385244888252430 Ga
atom 12.8127975442272657 9.1187572554058374 2.4628665647664438 Ga
atom 14.3379451318092102 6.4068140818533008 13.0552990604962407 Ga
atom 14.3431576351169259 6.4203436415141608 7.7498797047537069 Ga
atom 14.3284043071232432 6.5081732685975213 2.5673834422763480 Ga
atom 6.3977770393581537 14.7652848443023821 13.0130408629657701 Ga
atom 6.5165712393898634 14.9104496038229222 7.6600021454925393 Ga
atom 6.4558510886509906 14.8370069854417999 2.5251463973117598 Ga
atom 7.9806365885240904 12.0103606983192357 13.0011320365901160 Ga
atom 7.9315490320384816 12.1034839399396468 7.6657673393398866 Ga
atom 12.8422563653224131 14.8186666542888528 13.0153083665991609 Ga
atom 12.8451229015008437 14.8610833818695465 7.7145797178321596 Ga
atom 12.7805308566816276 14.7537400943126169 2.7166289212822297 Ga
atom 14.4658751175709703 12.1349239034311047 13.0275319318946963 Ga
atom 14.4382956708087864 12.0519507390025922 7.7038736921301227 Ga
atom 14.5590752621469139 11.8776854621887367 2.4651894065272102 Ga
atom 9.5289651845725611 14.7655919973610530 13.0055381514707769 Ga
atom 9.6116161276931944 14.8899161760908463 8.0152238606047650 Ga
atom 9.7155426487585110 14.7713168075926315 2.5327769574143439 Ga
atom 11.2574577997115188 11.9577941215170043 13.0423597126683628 Ga
atom 11.1726370144402871 11.8663933511480995 7.8175821769609435 Ga
atom 14.3773435365251583 1.0559515605236500 7.7645195750878511 Ga
atom 14.5138348006539317 0.9626016350733519 2.5765661531707731 Ga
atom 3.2279672825311572 14.7833539404119936 12.9942559929906292 Ga
atom 3.2159834409772459 14.7671825398122181 7.8330130980643302 Ga
atom 3.2278496313177709 14.7694798427239160 2.7629816835750303 Ga
atom 4.7726167638117181 12.0647683697972674 12.9067750414260445 Ga
atom 4.8012359147543764 12.0560213109433843 8.0004612283869161 Ga
atom 4.8071238148516393 11.9541084826386346 2.7225640511139946 Ga
atom 6.3416758115381233 9.2274940661706673 12.8819329867839603 Ga
atom 6.4363374036133205 9.2981052038026846 7.8841511300523717 Ga
atom 6.3134345218955774 9.2173913468767239 2.5329749996981774 Ga
atom 8.0209683359260335 12.0064012265049023 2.6100204020795301 Ga
atom 9.6948963924281397 9.1158156633767327 13.0339300177774771 Ga
atom 9.4574068766860755 9.2383431502373696 7.8092851317917669 Ga
atom 9.5921582877862530 9.2543344654282258 2.4903226447280304 Ga
atom 11.2405087472800655 6.3282857439958269 12.9866856105914614 Ga
atom 11.2076767368684784 6.5447454274545036 7.7313000421292513 Ga
atom 10.9780880705756001 6.3300703212658549 2.6915876265493948 Ga
atom 12.8177933813819571 3.5196005152125083 13.0583232317022215 Ga
atom 12.8597366766507708 3.8009226424950495 7.7174703066846506 Ga
atom 12.6631253731489242 3.6980443655954276 2.6285300015599145 Ga
atom 14.4004584681733316 0.8949201902098116 13.0415931854852705 Ga
atom 6.3712351450749463 7.3924078397468547 5.1349863020765207 Ga
atom 7.9922928322890812 4.5737722786504023 15.6171916933894117 Ga
atom 8.0121801796826304 4.5602288252425964 10.4379529030120501 Ga
atom 8.0120696552755781 4.7413343416832179 5.1151403690095609 Ga
atom 9.6114119852908324 1.9097425207059204 15.5940973274241586 Ga
atom 9.6767379277229004 1.9080529430733051 10.4185028784198526 Ga
atom 9.5448950480727497 1.7114509975504442 5.1879506956620354 Ga
atom 0.0230184270669998 12.9128003002773344 0.0102356167338544 Ga
atom 0.0458800736055642 12.9280659093954426 10.3889818270818317 Ga
atom 16.0020330748537063 12.7595229046743555 5.2460595181970788 Ga
atom 1.5855522832217157 10.0491932373268771 0.0003285540386973 Ga
atom 1.5115596699616198 10.1377215987946023 10.4369893493547821 Ga
atom 1.6237052357061046 15.7215036575729066 0.0019558566085677 Ga
atom 1.4637499697958103 15.6282465303907205 10.4661745558002739 Ga
atom 1.4751044342923281 15.7464464431318341 5.2990918375344025 Ga
atom 3.1341424081077878 12.9668932934096013 0.1553944778988345 Ga
atom 3.2970505506947263 12.8104691034787930 10.4191197492197691 Ga
atom 3.2163862292803724 13.0338582299091108 5.2887716052884652 Ga
atom 4.7182348810492600 10.2750330011444877 0.0092054727879799 Ga
atom 4.6713793765054534 10.0594079357147699 10.4496519956432330 Ga
atom 4.7070771144846653 10.2600265597920330 5.2057877811899509 Ga
atom 6.3305795542485797 7.4769930276295975 15.5065436599675728 Ga
atom 6.4396942781543869 7.3944148579597080 10.3826841162671162 Ga
atom 0.0905751628810296 7.3438213718155438 10.4596608816074053 Ga
atom 15.8662682770907182 7.3940832700688306 5.1542992205892553 Ga
atom 1.6522158204363511 4.6512462864586244 0.0969796116056403 Ga
atom 1.7045620880589964 4.5840578528724336 10.4695241055337789 Ga
atom 1.5165432392963081 4.6847417979844392 5.1462574274896040 Ga
atom 3.2572779117553039 1.7848962562037751 15.6144904888983760 Ga
atom 2.9597932231948580 1.7844475341639234 10.4144157173945047 Ga
atom 3.1948030428228940 1.9759707468265006 5.2477310594108380 Ga
atom 0.0268672386833753 1.8206247642441029 0.0975777028011329 Ga
atom 0.0276963897697717 2.0152586602668370 10.4412446762159483 Ga
atom 0.1089118530469845 1.8024946603625449 5.3232924073889443 Ga
atom 1.5280508184926933 10.1669306646179489 5.3214645245346137 Ga
atom 3.2948142282836352 7.3905828066801957 15.5602397478425019 Ga
atom 3.2445556638853428 7.3490548865102001 10.4379040438205415 Ga
atom 3.2122853376914584 7.3210569689638509 5.1548858398894755 Ga
atom 4.9139421338681624 4.5270587857348366 0.0380892808613560 Ga
atom 4.7861015419646504 4.5762163557096400 10.3890132179224768 Ga
atom 4.7177056814239497 4.6073409022770484 5.0991006795322766 Ga
atom 6.5826798354584453 1.9588097767628843 15.5130353153737346 Ga
atom 6.3322995681628429 1.7903140029336260 10.3192305482724489 Ga
atom 6.4366044175919255 1.8496777930093746 5.1415460962011315 Ga
atom 0.0576588296066756 7.3093020990796118 15.4762874879034538 Ga
atom 14.4024142641049551 10.0871339383690710 5.1254597995830391 Ga
atom 8.0270310267573457 15.7144318119243795 15.6061813977823949 Ga
atom 8.1078779391828792 15.8011783082377306 10.4806119535419473 Ga
atom 8.1663952615547739 15.6625941488788971 5.0739692554129334 Ga
atom 9.5310324103446344 12.8727422405162422 0.0335023003054277 Ga
atom 9.7656446840830871 12.8720498155748189 10.3180027069120239 Ga
atom 9.6890952611059102 13.0251571131892909 5.2450678040271876 Ga
atom 11.2121742535778370 10.1188503865287398 15.5827006262438132 Ga
atom 11.2539399669175513 10.0717927097623168 10.4462243915143453 Ga
atom 11.1596131556949700 10.1311715481940503 5.1903132384879811 Ga
atom 12.8090576881488687 7.2532817878329814 15.5845799500312108 Ga
atom 12.9018772265175254 7.5247754587498816 10.3948859138791843 Ga
atom 14.3113400286968364 15.7005950435633217 0.0037852714024080 Ga
atom 14.4622331561713260 15.8444128445620436 10.5229064435496902 Ga
atom 14.4694944512475008 15.6795249711262858 5.2064806045710643 Ga
atom 11.1892163103207185 15.6438017035315564 0.0133607387669420 Ga
atom 11.2580301438275505 15.7035137066795265 10.5133110074565916 Ga
atom 11.3418673665047436 15.8045570259954946 5.2640823663988385 Ga
atom 12.7961470495647323 12.8897451154327349 0.0797752965024078 Ga
atom 12.8579132004635301 12.9471770364438807 10.3340715539266839 Ga
atom 12.8595516339310318 12.9071538197672755 5.1380583584599142 Ga
atom 14.4416662176601847 10.0211458153989277 15.4582498500338676 Ga
atom 14.5429765888927438 10.2742826291287166 10.5506152783293405 Ga
atom 8.0406116642198544 10.1518516763051849 10.5527317838877774 Ga
atom 7.8440654118997237 10.1706832386762223 5.1916856818723831 Ga
atom 9.5254449844074802 7.3860308152325231 15.4907318876230189 Ga
atom 9.6573424441178553 7.3989389379481496 10.5268017318737002 Ga
atom 9.5539894983359552 7.5217045711939656 5.3279403542954080 Ga
atom 11.1298660396534999 4.6112795951932437 15.5827018112320168 Ga
atom 11.3076325627328238 4.7100536658280383 10.2208387195534822 Ga
atom 11.1738171595711595 4.4863066122003072 5.3427043306375239 Ga
atom 12.8417158008471866 1.7507018248843351 15.5872397646007972 Ga
atom 12.8939964817393982 1.8716362200065915 10.3220646025476892 Ga
atom 12.8041385747582197 1.8441729208660393 5.1289322649676548 Ga
atom 12.7686628022300486 7.2270896214074867 5.1536061456941509 Ga
atom 14.3321405393668861 4.5891799907936432 0.0928093852866125 Ga
atom 14.3913508854209624 4.6449200115477272 10.3983640873018359 Ga
atom 14.3882867956562475 4.5937289629200144 5.2400910668723411 Ga
atom 4.7693891891168771 15.7736939792155919 0.0671302698414856 Ga
atom 4.7167633157049735 15.6494716479403504 10.4084382344016770 Ga
atom 7.8799229346379001 10.1355712957644712 15.5994020294450628 Ga
atom 6.4136363688024902 13.0176531711597754 5.1486361590984728 Ga
atom 6.5236342714194038 13.0337945838467295 10.3465755509851576 Ga
atom 6.2908862790172950 12.9253572508204559 0.0263698606981785 Ga
atom 4.8783200293229640 15.8368641407703752 5.1975834385382171 Ga
atom 3.1305500684904510 9.2966223831860226 9.7582263193886867 N
atom 3.2370706808764500 9.2133952280821383 14.8995962719789148 N
atom 1.6824426824180723 11.8996627717425039 4.6017300330422497 N
atom 1.6351867892238676 11.9832942833203138 9.8022212846922443 N
atom 1.6520802118333431 11.9482459302301063 15.0817902450900867 N
atom 0.0473442266997076 14.6609767925651138 4.5605266747814959 N
atom 3.1665209982907436 9.2164657128165111 4.6234778346237091 N
atom 4.8375288843107489 6.4066906377649051 14.9751849777095583 N
atom 4.7974916585648648 6.4581644541505732 9.8577898183791586 N
atom 4.7790108987268374 6.3890168182401990 4.4603219977531854 N
atom 6.4485616879845606 3.7005731462397882 14.8969238495723495 N
atom 6.3795364158554335 3.6773927023825861 9.7810788515398848 N
atom 8.0146776622020894 6.3612277216433402 14.9714087509724649 N
atom 8.0714320473789094 6.5205159249606064 9.8764067758600813 N
atom 7.9095627878385493 6.5067315178981175 4.4142182091303868 N
atom 9.4763583663403654 3.7638951285031319 14.9111670313786782 N
atom 9.6583204955844408 3.7619623224875167 9.6731015491315233 N
atom 9.5801962304042405 3.6107652461219661 4.6486036000535611 N
atom 11.1929468163840014 0.9955541283698616 15.0027305654085001 N
atom 11.3511497054341888 0.9780662165806896 9.7797985758781110 N
atom 11.1700659339632580 1.0127522964840174 4.5235541385011757 N
atom 16.0018420297279249 14.8272008181167063 14.9957481073082945 N
atom 15.8841297492936793 14.7518661558202933 9.7112014017082053 N
atom 3.1534572807649455 3.7002151492876862 9.8000342118864623 N
atom 3.1239958940855050 3.6422505030337771 4.6480958906986096 N
atom 4.8986845968165484 0.9502592349903074 14.9808195927805787 N
atom 4.6753204935067707 0.8908923146216644 9.8708206044720903 N
atom 4.7249378046244237 1.0357259922325086 4.6461723551833911 N
atom 15.9552076232570936 3.6623851511885839 14.9759849444397073 N
atom 0.0546490884599131 3.6826613642771719 9.7421804563753849 N
atom 0.0466629524394558 3.6701762955052049 4.5705596877425645 N
atom 1.6323622798243982 0.9747433052228455 15.0409964374617129 N
atom 1.4107802238251330 0.8262267802750785 9.8050883037090664 N
atom 1.6102187469179956 0.8991962198352353 4.6342679534940805 N
atom 6.4215510607564141 3.7217185050764887 4.5295199095193945 N
atom 8.0546205479099893 1.0269885649505486 14.9952600741576205 N
atom 7.9190503734874387 1.0250936513752797 9.7170400956499705 N
atom 7.9177252724905767 0.8883303035488046 4.4911866862402219 N
atom 16.0056289996673797 9.1970600213633968 14.9680218783644285 N
atom 16.0013226658577921 9.2137117689475847 9.7950559000764894 N
atom 15.9913141669270722 9.1464918121767056 4.5256152570814363 N
atom 1.7379431439442277 6.4359627499243546 15.0178408217571810 N
atom 1.6555761546546852 6.4477973764484062 9.8319032428615465 N
atom 1.5463481903350977 6.5319496304802529 4.5398375210973763 N
atom 3.2538710931188164 3.7019762480272069 15.0952748682758688 N
atom 11.2279094549651628 11.9659827740440079 4.5709411888494547 N
atom 12.7249930743550177 9.1457830648730987 15.0559876486229047 N
atom 12.9621111027069524 9.3091803195777381 9.8738386773594851 N
atom 12.8007683886274908 9.1208439042182210 4.4556234817792619 N
atom 14.4429610599223039 6.4451027957205378 14.9132386558013454 N
atom 14.3231969487338961 6.4840050481838976 9.7878320572215785 N
atom 14.5026019520343326 6.3241045653908685 4.6025411061622847 N
atom 6.4118076684964329 14.8078769298740145 14.9335470792031586 N
atom 6.4849319341754850 14.8552183266641737 9.7109087786444181 N
atom 6.4429971766981451 14.8222429072238562 4.5760405688895043 N
atom 7.9312233545580959 11.9968217215403037 15.0332569493224639 N
atom 8.2128384069285794 11.8587980133855240 9.6545994436484115 N
atom 12.8202413236954573 14.7471131664758737 14.9366520521125121 N
atom 12.8879315116720132 14.7700286171689026 9.7941663214856085 N
atom 12.7900855237645885 14.7561499991662757 4.6440995664387694 N
atom 14.4737417309622245 11.9601389755605183 15.0132699753370993 N
atom 14.4999014850094206 12.0828519381398216 9.8021385885499530 N
atom 14.4283304443306744 11.8038900126102089 4.5528866962269658 N
atom 9.5778367772153921 14.7057969633908279 14.9675556486378767 N
atom 9.7472093970426066 14.7631836517219170 9.8833066887930787 N
atom 9.7650584762340635 14.8252068915724440 4.5950565730081570 N
atom 11.2854695913085958 12.0626872214825607 15.1144092943762178 N
atom 11.2694640046256964 12.0021776948394727 9.8162849414391680 N
atom 14.4582549254870649 0.9204488787125614 9.7046327294781634 N
atom 14.4894366929417835 1.0005311027984476 4.4899002474334972 N
atom 3.2032808730006792 14.7741415621694117 14.8560743042819681 N
atom 3.1444567007428272 14.6988818672534158 9.7007622410263306 N
atom 3.2369341329149939 14.9349032636060315 4.6805799671915915 N
atom 4.6694243071401544 12.0239745062199717 14.8821785648156943 N
atom 4.9267586719744987 11.9542102200275426 9.9425412199707388 N
atom 4.7361674049018019 12.0839069577215348 4.6261803181719783 N
atom 6.2484025291386223 9.2521535041301330 14.8470520066515501 N
atom 6.4069131062104114 9.3260381458502266 9.8504286304861921 N
atom 6.3214859945908710 9.2597846055427748 4.4923996457270050 N
atom 8.0041870413425755 12.1304823314179551 4.6641537962624433 N
atom 9.5968874072115149 9.1183403628610229 14.9234905239725038 N
atom 9.5523289727097485 9.2457343920911814 9.6657483187148809 N
atom 9.5395396342836527 9.3151414344031398 4.5526040525800981 N
atom 11.0967631093792019 6.3837826024477256 14.9730647867353994 N
atom 11.2873639069057976 6.5259872599716022 9.7609829173760350 N
atom 11.0631104461527574 6.3493578956645278 4.5218431429591774 N
atom 12.6666748773696085 3.6360044413057202 15.0344514172150650 N
atom 12.9089479781146395 3.6666790783064549 9.7244549175567485 N
atom 12.6069077355834622 3.7149929994784876 4.7057391651910416 N
atom 14.4397395700793609 0.8929774000446745 14.9510182658028334 N
atom 6.4933715972472239 7.3443029615215716 1.8557921594476607 N
atom 8.0454048974601999 4.7051803057626200 12.3549672576925307 N
atom 7.8662489446858892 4.6404112100071657 7.0715180425400117 N
atom 7.9828009754614966 4.6528615416521584 1.9347331433920893 N
atom 9.5493995343868576 1.8343704974074051 12.3834028963965732 N
atom 9.5341735073385152 1.8842761417069935 7.0575783497327178 N
atom 9.6091840159615796 1.8190285429507291 1.9639399336132515 N
atom 0.1299303374026707 13.0421449302354322 12.4236045929046668 N
atom 0.0490886348913274 13.0590096831593652 7.0589390921632926 N
atom 0.1589689294974289 12.8494612219431925 1.8401610923571099 N
atom 1.6619148440107778 10.1901648772303446 12.2896864564610873 N
atom 1.5647454695708405 10.2191646467335904 7.3385846146390676 N
atom 1.6988324424669878 15.7881185445571752 12.3292568489777956 N
atom 1.6978910819725901 15.7776484909263210 7.2789277055367876 N
atom 1.7052303557484458 15.7514982186514931 1.9459824276664452 N
atom 3.2042907473681201 12.9683369391340158 12.3891381018373341 N
atom 3.2213251090725090 12.9004432682702017 7.3324766643749406 N
atom 3.2018396357732404 12.8810409404978987 2.0267634019289371 N
atom 4.7194924490768981 10.1490862055481603 12.3824039820149974 N
atom 4.8292942356891002 10.1788473901386300 7.2369268948981791 N
atom 4.8238696226063924 10.1911991182985933 1.9685145016073349 N
atom 6.4238836113782645 7.3328521101289281 12.3112275880107660 N
atom 6.4013383938803132 7.4080943699469826 7.1388148958488147 N
atom 15.8479240726591559 7.2977696127168823 7.0904820765702530 N
atom 0.0323297456340897 7.2659913552980653 1.9629695618507503 N
atom 1.7657361970135523 4.6730415956738858 12.3859855950727038 N
atom 1.5799794575674475 4.7530220347873664 7.1033420791110391 N
atom 1.5724820837245821 4.5927671512402890 2.1706618358192218 N
atom 3.0818943249201820 1.8628798805995594 12.3967427079550543 N
atom 3.0741901462056296 2.0201551594153391 7.2905318266829759 N
atom 3.3221950326991347 1.8706335621898149 1.9156728389375448 N
atom 15.9522679150261801 1.9189893860247673 12.3412282907544135 N
atom 0.0745714340746995 1.9839581243841649 7.1420816635605613 N
atom 0.1917563291027823 1.8168775185999195 1.9602625268992639 N
atom 1.5987831521025830 10.0697258327866468 1.9039974347068191 N
atom 3.3109642567358804 7.3948410738665178 12.3932787512183680 N
atom 3.3560334873683200 7.4800272030488619 7.1484758834259816 N
atom 3.2450325817197720 7.3765343683852587 1.9362754186167626 N
atom 4.9128732626535996 4.6333637610683116 12.4155278679424974 N
atom 4.6857594311063551 4.6898441688354398 7.1538078446858435 N
atom 4.8112589744837502 4.5621831086800775 1.9539455567796817 N
atom 6.3851343519508301 1.7198117234662937 12.3102857334146716 N
atom 6.4599984194085938 1.8730049835741165 7.0567549519094062 N
atom 6.4230607473700339 1.8975589262598951 1.8774003197268339 N
atom 15.8581186519912798 7.4033073146827704 12.4260615030322814 N
atom 14.4941210360632802 10.0794493390654623 1.8308565847203864 N
atom 7.9590874239941352 15.6889795175040412 12.4369434943630175 N
atom 8.1631728447720864 15.8344740618123367 7.1004892684138223 N
atom 8.0038039263672687 15.8422740934900741 1.9800718281912020 N
atom 9.6605993955880276 12.9415191595458694 12.4386116724554245 N
atom 9.7072962450010944 12.9898716178441891 7.2285366922954948 N
atom 9.5542096253412279 12.9944968012555684 2.0279928653168966 N
atom 11.1425449292660836 10.2133804356863145 12.4843426032694094 N
atom 11.2345599160743532 10.0289550222456523 7.2117568252763720 N
atom 11.1313112049905634 10.1633523225665439 1.9692863591181458 N
atom 12.7829386094177906 7.5105271641741567 12.3465525955802455 N
atom 12.8198896314380377 7.4119386396950473 7.0787863309636618 N
atom 14.6438677179681545 15.7774310740918065 12.4144969313113336 N
atom 14.4617392523985799 15.7044502913507280 7.1837620445849470 N
atom 14.4383159444305900 15.6870292630985837 2.0177139767363701 N
atom 11.1435027915826410 15.7552719060588888 12.3978461050027455 N
atom 11.2100177871659508 15.7927011230188548 7.1431118138593348 N
atom 11.2039011825555654 15.8554997351533764 1.9952875233630396 N
atom 12.8019908087365533 12.9516727858847442 12.4429461527368410 N
atom 12.7659432590390853 12.8869451820693666 7.1186238383624607 N
atom 12.9501861860692546 12.8865764147520494 2.1100731703149576 N
atom 14.4858222327244626 10.2570906515300333 12.4548078300594742 N
atom 14.5140859016270500 10.2211926814998559 7.0479912848318023 N
atom 7.8729681085294922 10.1809211101471320 7.1410670309372231 N
atom 7.9473635352921077 10.1544657505993303 1.9338171232982007 N
atom 9.6719797225299420 7.3178474346279021 12.4787422683436784 N
atom 9.5232941375742435 7.4619757970607177 7.2847633930048916 N
atom 9.5329044461731076 7.4012330940537367 1.8764577372109037 N
atom 11.3404750625668704 4.5412923846341702 12.2882666604529174 N
atom 11.1540830774518493 4.8130635856168782 7.2647098957703387 N
atom 11.1197533999699285 4.6402956728310434 1.8505241589477845 N
atom 12.7834382832308471 1.8162790813218981 12.3576421641253091 N
atom 12.7764288397001184 1.9684805307673006 7.0310591326567877 N
atom 12.8866702116597320 1.9172160353425296 2.0527788780750260 N
atom 12.6655976819896594 7.1726065579319949 2.0067947632108822 N
atom 14.2775181519079606 4.6878885260008509 12.4692358408430373 N
atom 14.4233761324041243 4.5432522446561725 7.1853901723214602 N
atom 14.2604333900294939 4.5678177758012577 1.9934336029233466 N
atom 4.7792817500990443 15.6629030858547154 12.3565210582085570 N
atom 4.8420042330357154 15.8298844499553795 7.1653661571328060 N
atom 4.8752343406766689 15.5889165251211388 2.0274991705846048 N
atom 6.4385525152684435 12.9856970457565026 12.3914315526494558 N
atom 6.3117933180864814 13.0823002548894802 7.1244441844513791 N
atom 6.4985517627969607 12.9768632998978930 1.9719281439345941 N
atom 8.0375137005616679 10.0696946065363644 12.4581713317434559 N
