#===============================================================================
# Created using the Atomic Simulation Environment (ASE)

# Thu May 11 08:59:43 2023

#=======================================================
lattice_vector 16.0100851999999989 0.0000000000000000 0.0000000000000000 
lattice_vector 0.0000000000000000 16.6381685999439100 0.0000000000000000 
lattice_vector 0.0000000000000000 0.0000000000000000 15.6179127599999905 
atom 0.0238193622174697 14.7614429665657489 2.5790965998651640 Ga
atom 1.6617279285844881 11.9279952440944612 12.9697819464054653 Ga
atom 1.6739878836178350 11.9885327125303274 7.7528946362522557 Ga
atom 1.6016353812279625 11.9833553788552720 2.6454656877907445 Ga
atom 3.2030058188911306 9.2331321608136445 13.0134155144264252 Ga
atom 3.2490417183098081 9.2358785185293968 7.7743045331504268 Ga
atom 3.1785233875430885 9.2441799636404962 2.5737000446310994 Ga
atom 4.7775382188217375 6.4539961487723563 13.0137397241710460 Ga
atom 4.8396367114249825 6.4335534812162622 7.8849815801529362 Ga
atom 4.8099875695310459 6.4652886210702274 2.5837389532955117 Ga
atom 6.4284082436308614 3.6770050888922343 13.0151488661014181 Ga
atom 6.4274004889753265 3.6562351158020547 7.8403501384612655 Ga
atom 7.9849745058128354 6.4270861493391971 12.9984721931720593 Ga
atom 7.9720251506272293 6.4740653901726839 7.8288473180877558 Ga
atom 8.0517273178877193 6.5335171668230743 2.5792024742314585 Ga
atom 9.6741427186630826 3.6784332040454419 12.9957840976465349 Ga
atom 9.5323055460192485 3.6765608284336961 7.7978016214432335 Ga
atom 9.6583708767282914 3.6713954064862495 2.6655246041542799 Ga
atom 11.1656323940995001 0.9416879301520469 13.0002345826673498 Ga
atom 11.2034364525603571 0.9198299581271094 7.7863368811137876 Ga
atom 11.2112474560295272 0.9300553828233460 2.5972466092940958 Ga
atom 0.0539561623172550 14.8059119438693596 12.9546429823407578 Ga
atom 0.0558409545261297 14.7273584512755704 7.7421267827976097 Ga
atom 3.2176548091179367 3.6808211775918234 7.8547213843472479 Ga
atom 3.2421286056988574 3.6649287957042498 2.6473644151589442 Ga
atom 4.7576554172477277 0.9261546060219475 13.0500140472001807 Ga
atom 4.7732319368191840 0.9203252633117582 7.8120817320418325 Ga
atom 4.8311941070826947 0.9123728854553275 2.6791580057480591 Ga
atom 0.0113211770563090 3.6731716564402443 13.0003092217500651 Ga
atom 15.9759133499402228 3.6636733517689177 7.7746827712912969 Ga
atom 0.0233252943139727 3.7095225018026277 2.5989660778633130 Ga
atom 1.5966857837383686 0.9202746235327156 12.9711913867966508 Ga
atom 1.5885651151586533 0.8842725871678467 7.7944869664640866 Ga
atom 1.5875534233641246 0.8628216684042411 2.5448192901206430 Ga
atom 6.4292488224154036 3.7695948082879611 2.6185083741356494 Ga
atom 7.9336999733369833 0.9322518779688669 12.9161865591049541 Ga
atom 8.0290531531728746 0.9349951736055543 7.8246457481033946 Ga
atom 7.9640751742293689 0.9102521877526493 2.6291065689807884 Ga
atom 15.9767645505621569 9.2246552713994454 13.0561074758584308 Ga
atom 16.0007271527688992 9.2816259725000823 7.8069024859574112 Ga
atom 15.9964892713934912 9.2227904010943487 2.6437041415524809 Ga
atom 1.5579579840595901 6.4717823668881591 13.0395150796136576 Ga
atom 1.6687905130095109 6.5340212998632605 7.8231623907046366 Ga
atom 1.6868588761546983 6.4384798331262418 2.6184811958761935 Ga
atom 3.1815662789349970 3.7244380405894844 13.0180644600376549 Ga
atom 11.2222380330165734 12.0331605739603500 2.6401846301229450 Ga
atom 12.7935066318331074 9.2440243700827871 13.0062464519371499 Ga
atom 12.7627972752966663 9.2669034199910438 7.7874750273706317 Ga
atom 12.7653868120811200 9.2512836994278516 2.6561122354674849 Ga
atom 14.4133516177228742 6.5142803405022818 12.9976354730919006 Ga
atom 14.4821344356820649 6.4662924563021456 7.7855893598068153 Ga
atom 14.4413827276796845 6.4864343900164858 2.5771571054017883 Ga
atom 6.4212884842886409 14.7931411024980015 13.0197858318649136 Ga
atom 6.4510784208385035 14.7991399406425899 7.8232719808837983 Ga
atom 6.4057885209529761 14.7630781297980427 2.6490234654903047 Ga
atom 8.0023518269819327 11.9700957685643647 13.0633695713650138 Ga
atom 7.9567569471667863 12.0621917284860984 7.8618941198739565 Ga
atom 12.8419808501283352 14.8695227588417005 13.0386890700064839 Ga
atom 12.8521660297471580 14.8893212738770870 7.8075303502618771 Ga
atom 12.8487965938430975 14.6910047934073180 2.6851752275918876 Ga
atom 14.4198096681185408 12.1184138163641482 12.9659605766100565 Ga
atom 14.4314570078610398 12.0294091356567421 7.8080390578919463 Ga
atom 14.3562839064557579 12.0027261103898457 2.5979335351247350 Ga
atom 9.6706683455665523 14.8431502186458601 12.9740199792307287 Ga
atom 9.6223604836614651 14.7931701877397632 7.8190368876222509 Ga
atom 9.5639303109747917 14.7749572372544211 2.5851172321505902 Ga
atom 11.1963972985147837 12.0413532598151853 13.0676956705496838 Ga
atom 11.1972895678721844 12.0961987269787006 7.8279589290492559 Ga
atom 14.4658630216488522 0.9366383878258452 7.7651658272345179 Ga
atom 14.3313194935856085 0.8936102210909073 2.5972453014400863 Ga
atom 3.2712169880702220 14.7613297594609847 13.0374807676357278 Ga
atom 3.2760153017300646 14.7743897849040220 7.8106861413925026 Ga
atom 3.2005213650205402 14.8001410418304147 2.6067144374714735 Ga
atom 4.7957900662793804 12.0129312881932169 12.9957981779815626 Ga
atom 4.8062034798068796 11.9853331979384325 7.7137436876854792 Ga
atom 4.8206476332385453 11.9875864603020066 2.6341894179866614 Ga
atom 6.4132547431272542 9.2479608790029246 13.0534085769714476 Ga
atom 6.3586888407522606 9.2426825402508168 7.8370364223979214 Ga
atom 6.3609771906625276 9.2503397145536468 2.5876329730811105 Ga
atom 8.0124549589039802 12.1047137216132938 2.5588293006268064 Ga
atom 9.6391349300364855 9.2766736815142163 13.0433574453254106 Ga
atom 9.5978625697096192 9.2892770038862480 7.8160465312650489 Ga
atom 9.5674489945190686 9.2363731461191385 2.6457680401184014 Ga
atom 11.1992052820066821 6.4817437891015377 13.0535915774428108 Ga
atom 11.2249774472266068 6.4154828640920307 7.8502387650280072 Ga
atom 11.2282209687448766 6.4756449117164339 2.6718158145661510 Ga
atom 12.8325867708540411 3.6822715793658904 12.9874095167858101 Ga
atom 12.7889912467782185 3.7873075221321484 7.8350414813865275 Ga
atom 12.7537209772699800 3.7875771583839151 2.6552910733989870 Ga
atom 14.3953706116743643 0.9440385934231089 12.9875892162256150 Ga
atom 6.3837014830818939 7.4824503375218274 5.2252091032317409 Ga
atom 7.9690802165639401 4.5665511985467155 0.0233710087638349 Ga
atom 8.0582278524168469 4.6061499297594199 10.4284227348971417 Ga
atom 7.9064170358333064 4.6243047525412972 5.1345439968759337 Ga
atom 9.6048952294543284 1.8645871866636923 15.5807115859687908 Ga
atom 9.5758781535476185 1.7967738422943027 10.4172240955789341 Ga
atom 9.6032713598635819 1.8814656612880887 5.1347115596708734 Ga
atom 15.9851359693369055 12.9356862620090975 15.5681210255986855 Ga
atom 0.0535945954923696 12.9365827331560848 10.3466051078738133 Ga
atom 16.0001134501926572 12.9541522150554353 5.2158946987828037 Ga
atom 1.5665962253462549 10.1374804711782147 15.5938776350823876 Ga
atom 1.6296338137340929 10.1463512890254535 10.4598685275139989 Ga
atom 1.5684310353832429 15.6651128588110016 15.5942894136128363 Ga
atom 1.6106561151103602 15.7170142256110505 10.3291449753952396 Ga
atom 1.6350178735875089 15.7451423877268439 5.2117681315512847 Ga
atom 3.1645747425525950 12.8825424400121058 0.0498745816973463 Ga
atom 3.2217296610616706 12.9730555461763792 10.3689339999275401 Ga
atom 3.2100216460835860 12.9331232575588739 5.1595210333064596 Ga
atom 4.8155142675017979 10.1869020630359799 0.0126679029744297 Ga
atom 4.8168840496897110 10.1440389629532817 10.4445828770054181 Ga
atom 4.8005075334655301 10.1457012891318676 5.1812364052964615 Ga
atom 6.3967186766074855 7.3267964669991414 15.5883249289108985 Ga
atom 6.4201812614665279 7.3187842694709380 10.4259359424477704 Ga
atom 15.9982864161218075 7.4279261894585398 10.4650125023367941 Ga
atom 0.0394459380566078 7.4462987781307319 5.2408814314151737 Ga
atom 1.5641029988658726 4.5614919119749153 0.0469861027274132 Ga
atom 1.5936945992017333 4.5859338125561688 10.4119703731112470 Ga
atom 1.6337446498450987 4.6082286387657039 5.3061593062235026 Ga
atom 3.2398922569414101 1.8511455223102997 0.0248792787253539 Ga
atom 3.1192052013416505 1.8601128181137003 10.4923167847772980 Ga
atom 3.1310626478511523 1.8875152093525807 5.2177625809569683 Ga
atom 0.0051656225434111 1.7922884904764249 15.6169470850092704 Ga
atom 15.9710349568978991 1.8432638995779260 10.3624467544261485 Ga
atom 16.0018131213852719 1.8377115099744343 5.2591148621142159 Ga
atom 1.6642307802919101 10.1784051296134130 5.2684404975244776 Ga
atom 3.2181140303206033 7.3801134079526163 15.6012831159320964 Ga
atom 3.1826741351894059 7.3469098609973376 10.4293113138194755 Ga
atom 3.2543141879771280 7.3449849127292062 5.1822347176224932 Ga
atom 4.7554815573483173 4.6730049512971732 0.0010760341868479 Ga
atom 4.8156821919113550 4.5089463568290231 10.4440150006258001 Ga
atom 4.8110176939830609 4.6262346478515726 5.2277726783726459 Ga
atom 6.4120383870625837 1.8423014107833044 0.0306396191249865 Ga
atom 6.3757019715992200 1.8759019305801186 10.3554935809921904 Ga
atom 6.3777837820225729 1.8322302477046413 5.2366270531779078 Ga
atom 15.9748657372515588 7.3541359508620747 0.0221456214099649 Ga
atom 14.4329201109945853 10.1530599600183127 5.1787134493997025 Ga
atom 8.0223949731432391 15.6801930716638580 15.6035213910578197 Ga
atom 7.9475358910702285 15.7105281012830993 10.4133781626192405 Ga
atom 7.9723704467094398 15.6910911052482049 5.2245529562344686 Ga
atom 9.5927440490211406 12.9342973691071847 15.6173523446838409 Ga
atom 9.6225794204811645 12.9821776277192988 10.4425444870786404 Ga
atom 9.6216946037053948 12.8530088594745227 5.2433534140491416 Ga
atom 11.2656855034646419 10.1982937213620932 0.0212927213995833 Ga
atom 11.2403351602846069 10.1493093586435332 10.4222756887672663 Ga
atom 11.1681170722215928 10.1374869996029133 5.2293797990658328 Ga
atom 12.8741866764002353 7.4115220182555461 0.0080483847949732 Ga
atom 12.8130590443565442 7.3891228638435154 10.4271122427644638 Ga
atom 14.3897630623692585 15.7034182236128057 15.5710322380139914 Ga
atom 14.4781329134004970 15.7097634683271501 10.3935284614959347 Ga
atom 14.4130857296805690 15.7089923185113580 5.1748745178647138 Ga
atom 11.2527732385067267 15.7177066388684867 15.5791835058573724 Ga
atom 11.2136391103036992 15.7015883087277857 10.3875611389335081 Ga
atom 11.1971463218885763 15.7006387518156050 5.1677826988275699 Ga
atom 12.7605025402038752 12.9420222884171725 15.5422623464979193 Ga
atom 12.7951847285438340 12.9836013985418646 10.3116884119859673 Ga
atom 12.7625181068752376 12.9625704910093500 5.2059488356931274 Ga
atom 14.3807230162772388 10.1904293886817658 15.5769152066290761 Ga
atom 14.4072547435213849 10.1942860886688251 10.4425326483907526 Ga
atom 7.9808282950474654 10.1931737353958223 10.4337690992599388 Ga
atom 7.9335256279101678 10.2589243992083610 5.2105089354171303 Ga
atom 9.5861206485449184 7.3712389751787377 15.6046350272459726 Ga
atom 9.6494090007062656 7.3959657544170376 10.4531497695412465 Ga
atom 9.5276590786858897 7.4173083780888538 5.2021641560057983 Ga
atom 11.1630400922468542 4.6316347637187896 15.5323259359553418 Ga
atom 11.2393746974635196 4.5599023835309449 10.4030836427314082 Ga
atom 11.1885147808004746 4.6292464265387432 5.2468304926209690 Ga
atom 12.8193460661112120 1.8236726988389760 0.0164886853806092 Ga
atom 12.7952835859812151 1.8704781552499641 10.3310828589635300 Ga
atom 12.8129536918763929 1.8241967380437965 5.2611709331282874 Ga
atom 12.7999114882977114 7.3972280860490356 5.2603552675246164 Ga
atom 14.3699647547802094 4.7407786929329614 0.0077848020475375 Ga
atom 14.4356241536696590 4.5953352284786098 10.4072031224243311 Ga
atom 14.4460721957901939 4.6114580315370395 5.1304883659124290 Ga
atom 4.7859888765052103 15.6667181625325433 15.5595354114952240 Ga
atom 4.7817292273178094 15.7442363623349895 10.4256255679840670 Ga
atom 8.0007471380619464 10.1116789580882198 0.0232014878830783 Ga
atom 6.3753189177894827 12.9784221613917730 5.1466231300521086 Ga
atom 6.3231898526234538 12.9422408691947375 10.3852127369095264 Ga
atom 6.3841275247172646 12.9867657262298337 0.0045570313565513 Ga
atom 4.7989435487795573 15.7824778928326683 5.1772838782199013 Ga
atom 3.1258842745878663 9.1814784724930796 9.7961892025349897 N
atom 3.1689306054710729 9.1419020232169252 14.9494285641700646 N
atom 1.5839737808858698 11.9912255362654285 4.6190320905989815 N
atom 1.6405214038082472 11.9647093723271603 9.6952529829758980 N
atom 1.6565927210933284 11.9932538789581074 14.9513402198634058 N
atom 0.0185010673030664 14.7885237000993701 4.5979427475117998 N
atom 3.2104821033360746 9.2311368649048458 4.6205886751015095 N
atom 4.8513937325809469 6.5100795925459582 14.9417709998474848 N
atom 4.7972426542798683 6.4463675460931844 9.8128490724832691 N
atom 4.8018199815801488 6.3924405307898144 4.5510088381294551 N
atom 6.3550853169512944 3.7182867737169270 14.9176429884730961 N
atom 6.3787298106103325 3.6432230963271186 9.6903714788105066 N
atom 7.9977709359761358 6.5167641720080987 14.9774726872868360 N
atom 8.0478874979805930 6.5108622118087345 9.8229049809695965 N
atom 7.9748934225320038 6.5563365717446898 4.6121887966329096 N
atom 9.5978362774672394 3.7066745534309757 14.8773117038474076 N
atom 9.5436837718164735 3.5986519257361369 9.7235745357841665 N
atom 9.6168683177314094 3.6817592862067938 4.5980219972923875 N
atom 11.2111272490964602 0.9784371116164565 14.9201744224332273 N
atom 11.1940127898328612 0.9269440685654654 9.7387969330682544 N
atom 11.1639323463881084 0.9656588729148393 4.4276788065081956 N
atom 15.9657988511117637 14.7691263238942945 14.9002775016130204 N
atom 16.0066312843051968 14.7453555747062364 9.7246528452452399 N
atom 3.2400103804563125 3.7022219231818454 9.7811765692924073 N
atom 3.2225374048863946 3.7056251111996388 4.6518460027720350 N
atom 4.8445901063679777 0.9455711250877218 14.9519326153031020 N
atom 4.7698737710432928 0.9721098521930112 9.7813593048172827 N
atom 4.7662957202339147 0.9025759149536322 4.5779688501306941 N
atom 0.0067310697581913 3.6479753224416411 15.0004411161898705 N
atom 15.9872339049117009 3.6465386782790286 9.7278225940873195 N
atom 0.0872619564126619 3.6660722434737050 4.5501338230599604 N
atom 1.5061468308302126 0.9069398026927284 15.0047817764579730 N
atom 1.5793795222653582 0.9636617336508632 9.8011529309048004 N
atom 1.5988860775674891 0.9820961070350814 4.5820812623502922 N
atom 6.3171667048583844 3.6851222761598437 4.5901189223345682 N
atom 8.0360900290206256 0.9371905170641991 14.9139326780588899 N
atom 7.9935924022582752 0.9007785908966290 9.7454707012504809 N
atom 8.0119486345633302 0.8427741338924126 4.5403756402509696 N
atom 0.0014721649991462 9.2359099846323556 14.9826604276760058 N
atom 15.9921805698789772 9.3137813684425765 9.8426982961058780 N
atom 0.0968298715660710 9.3214631561063293 4.6100543811160382 N
atom 1.5995105388282851 6.4025208738387409 15.0235941942400277 N
atom 1.5972651158384055 6.3620860632722174 9.7877972134960967 N
atom 1.6016096995188160 6.4889787238639558 4.5596611984212503 N
atom 3.1975929471423767 3.7085697849034123 15.0098163817510084 N
atom 11.2156800865198036 12.0225224145776668 4.5417994203162158 N
atom 12.8842469897802463 9.3427987329345683 15.0475424430084317 N
atom 12.8199749351788483 9.2850236465823830 9.7198415834582086 N
atom 12.8350105296522301 9.2361290879534010 4.5357502500802225 N
atom 14.3702959487229283 6.5701879658168094 14.9208624063026445 N
atom 14.4034159254924088 6.3679278581218917 9.7380062140645531 N
atom 14.3481600903901541 6.4963042270922200 4.5242744716837944 N
atom 6.3956852583526125 14.8086895001424939 14.9494568748300232 N
atom 6.4214462445010865 14.7584866737694718 9.6609730878489710 N
atom 6.3053620983265830 14.7555801087608067 4.5100241863675237 N
atom 7.9557948743875411 12.0564082543614468 14.9728551044424254 N
atom 8.0322454013939435 12.1108388743499749 9.7951835446558864 N
atom 12.7631155470591811 14.8011631920285591 14.9909690556726165 N
atom 12.7490048040301236 14.8388392893698349 9.8215234829954756 N
atom 12.7442863350929443 14.8219720839464077 4.5436137399241510 N
atom 14.4375975971991153 12.0608308647947329 14.8581741970672265 N
atom 14.3292598410945562 12.0246910786391208 9.7912088165142404 N
atom 14.4167620781308568 12.0200846075149332 4.5763343899048285 N
atom 9.5595009918152147 14.7899329210128734 14.9758329847597125 N
atom 9.5851771237934358 14.7962522994854115 9.7973000639630818 N
atom 9.5742130631212738 14.7355226782028872 4.6951155514594687 N
atom 11.1926939645626948 11.9919997206665432 14.9528519468808376 N
atom 11.1110805015237517 12.0565682699893113 9.7300727770331523 N
atom 14.3753631905822381 0.9201123592126063 9.7016804405007715 N
atom 14.4077458561277378 0.8937923906875062 4.5812057178387082 N
atom 3.2812009504896689 14.7453844765173461 15.0476093674625879 N
atom 3.2215794320442148 14.7444257814858872 9.7717365718148201 N
atom 3.2022259945629576 14.7852049005238158 4.4938806023609859 N
atom 4.7259774055172743 12.0685421342021115 15.0120555133176179 N
atom 4.7595491715608027 12.0134736813443315 9.6794836236964734 N
atom 4.8498584440772614 11.9917732506071726 4.5485577685973784 N
atom 6.3751285646565652 9.2271152291355580 14.9993385217209489 N
atom 6.4234863650780394 9.1730769353041310 9.8783337227261718 N
atom 6.4586354692573327 9.2451656455368436 4.5665859465607053 N
atom 7.9967742297372677 12.1354147370335692 4.5581969530952655 N
atom 9.5712830584451432 9.2972975360457877 15.0134177922656242 N
atom 9.6474264998732782 9.2379526079133960 9.7640393771718337 N
atom 9.5824176535333763 9.2308806767766285 4.6476583088644539 N
atom 11.2333185544479015 6.5049178868311346 14.8852637075265903 N
atom 11.3040664776456286 6.4083361256749578 9.7875076378453656 N
atom 11.1287465650959163 6.5552133428509194 4.5836641614054656 N
atom 12.7566599846403612 3.7529310981342490 15.0156804506906880 N
atom 12.8857221279047263 3.7317022891781408 9.8347918332253048 N
atom 12.8806711971109333 3.6708706524681043 4.5414092675124031 N
atom 14.4258647159253766 1.0307832196542253 14.9589685263961343 N
atom 6.3405352583828627 7.4566728275188732 1.9178312685055370 N
atom 8.0888134183837526 4.6478621525066188 12.3637183546029359 N
atom 8.0626213589010209 4.6383458195457088 7.0540948539410815 N
atom 8.0517408034335212 4.6899636626321115 1.9944736542058787 N
atom 9.5835697288126642 1.7552592975764956 12.3684952187751680 N
atom 9.5881826679605631 1.8151229957561208 7.1946005398409199 N
atom 9.5867501484139162 1.9331100961747187 1.9655990880973491 N
atom 0.0795123111827613 13.0033427950035030 12.3396586843488958 N
atom 0.0441742092918900 12.8336052613504261 7.1064887919773767 N
atom 15.9572285720237463 12.9046426206673583 1.9847817761683435 N
atom 1.6320145486141531 10.1393389816976001 12.4250616701036254 N
atom 1.5747087128060542 10.2080909130614188 7.1478687001445049 N
atom 1.6141918173646401 15.7158284964661714 12.3555865746108644 N
atom 1.5713155513327550 15.6525303523552051 7.2071628976028137 N
atom 1.6698547168231477 15.6923059613354194 1.9564091789606586 N
atom 3.2446097781473484 12.9211825741024846 12.2901201236394826 N
atom 3.2398056587267754 12.9111120227329099 7.1646276265373503 N
atom 3.1675260918145978 13.0284888335571178 1.9238470070765210 N
atom 4.8325901467490073 10.1825422261177536 12.3863175501024436 N
atom 4.8461550636928834 10.1818923392692113 7.2050007005013637 N
atom 4.7767738741884971 10.1064878790054742 1.9709841059241522 N
atom 6.3578127990375881 7.3979546589848395 12.3465460491247061 N
atom 6.4086543529921709 7.4804200367132001 7.2188732256186281 N
atom 0.0332126251703378 7.4203516469858606 7.2308707197476583 N
atom 0.0566278496360659 7.4346447424552116 1.9732858894187439 N
atom 1.6882438386042822 4.5906904431413240 12.3817559809997597 N
atom 1.6374631985282528 4.6188546274753062 7.2031970894002733 N
atom 1.6113304126360921 4.5423141285568551 1.9917625665145757 N
atom 3.0984713419569463 1.8446496307511204 12.3888093018296299 N
atom 3.1378028357876984 1.9015513694501041 7.1624565712821964 N
atom 3.1307302932358536 1.7847331572605523 1.9108609195414308 N
atom 0.0427886838375738 1.8154599004701097 12.2849855219304587 N
atom 0.0058864795579457 1.8385123711790141 7.1689679182000638 N
atom 15.9816847530367703 1.7850018831996803 1.9274726726560139 N
atom 1.5018711265390134 10.1750028217515780 1.8952278530491244 N
atom 3.2451633537669786 7.4770483656634097 12.4308867095374413 N
atom 3.3065813738322785 7.3090888091002340 7.1276390730425012 N
atom 3.1883515498392043 7.3494090615498555 1.9731453196142086 N
atom 4.8780714217789258 4.6346830639122940 12.4259504379227401 N
atom 4.8042044792527365 4.5451331928075973 7.1078806179349261 N
atom 4.8405004156239100 4.5672554811328814 1.9887973192456421 N
atom 6.3169675556154328 1.8525458044688814 12.3355672324688168 N
atom 6.3500609840074294 1.7474202876348919 7.1058464605841705 N
atom 6.3593153027831582 1.9285527508171247 2.0182858566192419 N
atom 15.9564457952415015 7.4575868339437150 12.3019694858749471 N
atom 14.3601035393706944 10.1310353802835120 1.9724525254859142 N
atom 8.0326483846411474 15.6611116744689163 12.3337513095493847 N
atom 8.0998906675826081 15.7408821075480692 7.1208461521771920 N
atom 7.9891978561822761 15.7236282164133438 1.9822984073199099 N
atom 9.5871323202724081 12.9766053410830313 12.4069831190129847 N
atom 9.5238129558145879 12.9754390954528738 7.0877112886863465 N
atom 9.6849127240455939 12.9326018039727071 1.8989458607000960 N
atom 11.2288187705140334 10.3121092932892306 12.4127664409872640 N
atom 11.2624996911814304 10.2695841419057032 7.2539324344090952 N
atom 11.1816077473434312 10.1576911762266402 1.9807813777765193 N
atom 12.8067011974626634 7.4451296808652261 12.3448398983156267 N
atom 12.7530500305969650 7.3174106563261638 7.2098483158912083 N
atom 14.5317433064861294 15.7646693092420662 12.3884868517744469 N
atom 14.4969058244351245 15.7006298460333760 7.1635886662341184 N
atom 14.3375922860323577 15.6353728520139370 1.9407023172350502 N
atom 11.3031368244022747 15.7906700371196074 12.3009031846173382 N
atom 11.3289924042009726 15.6900930667414151 7.1462185293132539 N
atom 11.2360660066958786 15.7995003375760454 1.9810354629949249 N
atom 12.7870156538375070 12.9456154793179472 12.3860176550601651 N
atom 12.9620232717626678 12.9948756134257657 7.1538013579207176 N
atom 12.7534016540985924 12.9527594657358449 1.9936681639586464 N
atom 14.3755545595888421 10.1583938900328317 12.3264481032293816 N
atom 14.3982068436871948 10.1808263126103924 7.1501008677434745 N
atom 7.9495175130793800 10.2424302966767247 7.2128377903685967 N
atom 8.0142750432024137 10.1854514176586619 1.9822407387613099 N
atom 9.6633625290394729 7.3767831358095846 12.5084174731322797 N
atom 9.6051807003753176 7.4531853446528675 7.2205666713621914 N
atom 9.6412063113502509 7.5079971109172092 1.9136866083960895 N
atom 11.2843064686411285 4.6598615031339650 12.3355878353642918 N
atom 11.1144418329920409 4.6033490584953327 7.2176850059772022 N
atom 11.1524163802298197 4.6199827722426043 1.9399674873388519 N
atom 12.8133022638037488 1.8263067832868096 12.2542981759663654 N
atom 12.7238011152016828 1.8494423727407039 7.1902008583118118 N
atom 12.7171974515207786 1.9158961742013068 1.9598537358261092 N
atom 12.8386572557038221 7.3689838104352496 1.9427696909992755 N
atom 14.4312435211453938 4.7001232254868484 12.4131091054082923 N
atom 14.5034464655710860 4.6198616528600889 7.0614137705117876 N
atom 14.4449576014865020 4.6003514670522359 1.9892249729442975 N
atom 4.8424200385214489 15.8005023345580433 12.3392581186550299 N
atom 4.7758131477070833 15.7669304802815606 7.1480188839370982 N
atom 4.8775761021061044 15.7396185117931093 1.8812665530160189 N
atom 6.3771794254485208 13.0183975484057974 12.3522571019220813 N
atom 6.4258558763834177 12.8562095302687229 7.1185856344018186 N
atom 6.3941458346217921 12.9456040184847083 1.9875862551643695 N
atom 8.0325095065951082 10.1784643848374792 12.4056394061630080 N
