#===============================================================================
# Created using the Atomic Simulation Environment (ASE)

# Thu May 11 09:00:44 2023

#=======================================================
lattice_vector 16.5841519999999996 0.0000000000000000 0.0000000000000000 
lattice_vector 0.0000000000000000 17.2347563186669994 0.0000000000000000 
lattice_vector 0.0000000000000000 0.0000000000000000 16.1779175999999900 
atom 16.5800445496441675 15.4169639835639778 2.7234183023312704 Ga
atom 1.6192319873865144 12.3280571357501909 13.3298679952187875 Ga
atom 1.4727617263710107 12.6294817474055900 7.9624951437365432 Ga
atom 1.7761333839900362 12.5552460888380235 2.7459538737173057 Ga
atom 3.2497484466253934 9.5931033541958790 13.4544660185513489 Ga
atom 3.3561424072865602 9.6127430066500583 8.0063140257533298 Ga
atom 3.2850172040046113 9.7134525335053965 2.7416185089739193 Ga
atom 5.0279401771673884 6.7920392768667641 13.5912979986399218 Ga
atom 5.1157677191135322 6.7481055600093738 7.8802385908871191 Ga
atom 4.9040989932497885 6.5711035655979781 2.9046199248311719 Ga
atom 6.6561524517569985 3.8296330449466502 13.5006928000233302 Ga
atom 6.6704964632424613 3.8522014025188489 7.9643036612199802 Ga
atom 8.2566519842163508 6.7501054096655722 13.4820846261825533 Ga
atom 8.3553144753998829 6.7221707085320936 8.1456744772254872 Ga
atom 8.2961981134190665 6.5521213049920659 2.7210270571886994 Ga
atom 10.1018230849563970 3.8539808768230346 13.3829212570940506 Ga
atom 9.9323865825069149 3.9433819706122177 8.1224238266974247 Ga
atom 10.0710060307719793 3.7728713121061848 2.6327733875585553 Ga
atom 11.6324267431497610 0.9077379168881461 13.4906545617119331 Ga
atom 11.6754715710011112 0.8440411477428381 8.0938602302228961 Ga
atom 11.5329099103213331 0.8513161605268240 2.8793476428384523 Ga
atom 16.5733681580642269 15.3365069293953251 13.6068659516237940 Ga
atom 16.3746625708988489 15.3195299624699555 7.9622557254916781 Ga
atom 3.2355777857292902 3.7026485053938125 8.1437003029206174 Ga
atom 3.2883503066194919 3.9427747207277535 2.5731652987494908 Ga
atom 4.8515671840974983 0.9160133336536878 13.4405210263098258 Ga
atom 4.8764323865141010 1.0159712832259953 7.8839806159032495 Ga
atom 5.0948112112284827 1.0077929849275902 2.6311246146527827 Ga
atom 0.1147522943712247 3.7746915965045451 13.4445726866867226 Ga
atom 16.4675259936762686 3.9441835226710573 8.1994332955783165 Ga
atom 16.4019865082799221 3.9144009195304199 2.7413979515009421 Ga
atom 1.7655752307757238 1.0566252016483872 13.6690444827415192 Ga
atom 1.5774352424876648 0.9977676712275277 7.9123600852705307 Ga
atom 1.6359380087079343 0.8882485099491729 2.5862096069941218 Ga
atom 6.6574521491874847 3.7317035329092416 2.7398156415495785 Ga
atom 8.1833820683192613 0.8562492224093891 13.4666326990516616 Ga
atom 8.2944821581773027 0.9685554252569771 8.1330578960980162 Ga
atom 8.2673598591378372 0.7858210366556517 2.5771829300292293 Ga
atom 0.0097520454932273 9.5640179177227616 13.4338328285997104 Ga
atom 16.4671647823634117 9.4375385774830836 8.1859615545580429 Ga
atom 16.5489944606145229 9.6948121585592766 2.6682868895403251 Ga
atom 1.6396639078773849 6.5977540666890970 13.3778046058986497 Ga
atom 1.5175924536774381 6.6755024232406894 8.1751807775770100 Ga
atom 1.6477877993067640 6.9227218484020625 2.7771938779686818 Ga
atom 3.4926542555132003 3.9156442682029149 13.4288999887928657 Ga
atom 11.7609576607415391 12.4444017789203230 2.6875814014682495 Ga
atom 13.2593348098880437 9.5950048985537766 13.4488857317974357 Ga
atom 13.1727309705254143 9.5793863708062048 8.1317144178480092 Ga
atom 13.3556929301061587 9.7022448087875457 2.7157537341260287 Ga
atom 14.8257172289606594 6.6309854442752680 13.5367176531337616 Ga
atom 14.9472971354495510 6.5725398968109250 7.9360079372806069 Ga
atom 14.9284451492755146 6.6538673901334739 2.8513052323638406 Ga
atom 6.6296572798178870 15.1578166612013820 13.3573001415516988 Ga
atom 6.5419009118244693 15.2892393015811514 8.2034795671010521 Ga
atom 6.5928901730516083 15.3184440338690688 2.5170684179317955 Ga
atom 8.3115871038885007 12.3450591651874433 13.4940773566051373 Ga
atom 8.4037367292727509 12.4285870362284196 8.1284147253850207 Ga
atom 13.1715375329114774 15.3851549611571699 13.4886962730466387 Ga
atom 13.0148798061325337 15.4055617687563764 8.0415711723198289 Ga
atom 13.2447687972734549 15.2157027904925055 2.8181501769999784 Ga
atom 14.9478638444333729 12.5784852495072137 13.4555203464158701 Ga
atom 14.9060187518510574 12.3771441974843750 8.1193653445104665 Ga
atom 15.0155002385554059 12.4161939012518818 2.6865379433833292 Ga
atom 9.8818544530929220 15.3041355647225910 13.4492130674377464 Ga
atom 9.8412926425607026 15.2556020340851273 7.8959429636557541 Ga
atom 9.9218936261910766 15.1350750590081322 2.6696101687755984 Ga
atom 11.5750275688840230 12.5448553761933645 13.4172742010115531 Ga
atom 11.7267299535737841 12.5242879924650161 8.0243555379190177 Ga
atom 14.9856223869748959 0.9392071357858942 8.0256648886103097 Ga
atom 14.9270250628382826 0.9402918968775010 2.6565753673551451 Ga
atom 3.2819830653930619 15.3549183150547783 13.3439396731648348 Ga
atom 3.2151899077484973 15.3096804665035240 8.0360093143571483 Ga
atom 3.3735712940604023 15.4170567434798169 2.6594086290547101 Ga
atom 4.8972369609921502 12.4861647455041904 13.5543854216242057 Ga
atom 5.0294993904019067 12.4121273298197643 8.0223461641106582 Ga
atom 5.0049666692804093 12.4090982972026076 2.8156852591823114 Ga
atom 6.7731971124963382 9.4325808395549533 13.5010277987136824 Ga
atom 6.7472214534853121 9.6580265505261167 8.0875372925872036 Ga
atom 6.6790021577615404 9.6373805394046883 2.7786791534759612 Ga
atom 8.1939128523892784 12.2947926066049185 2.7291182485356664 Ga
atom 9.9199169088971715 9.6559161075855542 13.3700019186850128 Ga
atom 10.1555075989850643 9.5937625379533085 7.8962760572693140 Ga
atom 10.0438221719306178 9.6199830719661108 2.7415317590061279 Ga
atom 11.5737637487084477 6.7895854305818686 13.5049245361951673 Ga
atom 11.6432869765811411 6.6973991064353680 8.2189277532247171 Ga
atom 11.5802317440275626 6.6795491820124733 2.6620451969156602 Ga
atom 13.3280501562884748 3.8192155282950240 13.5110087498475764 Ga
atom 13.2127131420891200 3.7377555711335870 8.2821353169013108 Ga
atom 12.9929918953608130 3.6159752767752700 2.8571548097772963 Ga
atom 14.9571879862705401 0.8922849284486659 13.5769162839340609 Ga
atom 6.7194318013967296 7.8404461782547790 5.2900048936312647 Ga
atom 8.2876057743812659 4.7649708159073034 16.1444048990872133 Ga
atom 8.2658120270273852 4.9717843370400674 10.9007869164976476 Ga
atom 8.2176298127503475 4.7217285516696146 5.4662947174359013 Ga
atom 10.0567549099471432 2.0087459387743811 16.1462345693970626 Ga
atom 9.8956959008002485 1.8708092404440051 10.8615499898886991 Ga
atom 9.9848352984475763 1.9588676440848867 5.5432767680407720 Ga
atom 16.5293814314026442 13.3275148299639454 0.0792552928854682 Ga
atom 0.0420472999460793 13.3671198245497003 10.8030540569123943 Ga
atom 0.0399717508224096 13.2981458341571575 5.2487209577570857 Ga
atom 1.7488503020641064 10.5992205718016468 0.0345086471041320 Ga
atom 1.6633080926889932 10.5987858389995360 10.5420093148236536 Ga
atom 1.6642677180861924 16.2087641745482607 0.0067361281962950 Ga
atom 1.4803394276145192 16.1482326895381156 10.7798859676346144 Ga
atom 1.6110268882183092 16.2799526806109398 5.2872678591187272 Ga
atom 3.2807155295330919 13.5559158967645192 16.1128692701768301 Ga
atom 3.3425767739798853 13.3483165238020280 10.6930937159695070 Ga
atom 3.4432190544605321 13.4700945181726368 5.2727866126650147 Ga
atom 5.0738291413992238 10.5812880640260438 0.1510038031399041 Ga
atom 4.9707480558214527 10.4742611656003390 10.8635162940631069 Ga
atom 5.0407317334896264 10.5293482954162201 5.4025230504633432 Ga
atom 6.5933087895049320 7.6811295417588417 0.1951380808997593 Ga
atom 6.6970153813939799 7.5962746431190160 10.7746193968584532 Ga
atom 16.3687649517439517 7.7940339483416423 10.8854028825391929 Ga
atom 0.0001288619526576 7.6467439877090131 5.3991431928093521 Ga
atom 1.8071869033584862 4.8839097819351789 0.1274698789579769 Ga
atom 1.5619795018049625 4.7705575558378666 10.8292302238050873 Ga
atom 1.5906274690934641 4.6551221849817122 5.4015334850174090 Ga
atom 3.3193327305520528 1.9207880963797099 0.1497395575119584 Ga
atom 3.1135846819385171 1.8011470856800458 10.7759366538239387 Ga
atom 3.3722718165273138 1.9984683631825972 5.2545443448508804 Ga
atom 16.4138956899511896 1.8499422232855094 16.1133600899456972 Ga
atom 16.5265209906570725 1.9539870828628254 10.7146635101556829 Ga
atom 16.4394854986790477 1.9925126866258678 5.3470929959304421 Ga
atom 1.7025120285246471 10.5520627417396131 5.3469420785604322 Ga
atom 3.4650061012126776 7.7458991772966650 0.0862990420578545 Ga
atom 3.4316291692523420 7.6299549145370325 10.7166040320171891 Ga
atom 3.3360484095114344 7.4536522416619793 5.4833138309994087 Ga
atom 4.9333819529334333 4.7652022235605020 0.0732517492444932 Ga
atom 4.8932135953017921 4.7783517140881822 10.6016999362840014 Ga
atom 5.0791256307072574 4.7470074624246079 5.3992401223729667 Ga
atom 6.7054917380455059 1.7801960990483998 16.1498406574646900 Ga
atom 6.5243338539325118 1.9950879517100846 10.6736158189871038 Ga
atom 6.7548337204315443 1.8438155111038539 5.5860320850021683 Ga
atom 0.0115567194311176 7.6884009553641999 0.1352056195298250 Ga
atom 15.0168201505805747 10.5035368416293640 5.5729867727855771 Ga
atom 8.2658867987264788 16.3107012764687980 16.0307963169018812 Ga
atom 8.2899691572850056 16.2840221386418946 10.6563013188480440 Ga
atom 8.3371935441998630 16.1556857406796333 5.3132068346705008 Ga
atom 9.8835962735610785 13.3708793922284297 16.1349082392827299 Ga
atom 9.9440808425361435 13.3329470764970264 10.7260302911218375 Ga
atom 10.2491976167052936 13.3367662435437033 5.5199794400199975 Ga
atom 11.4852092663598491 10.4453874548381300 16.1007187192438224 Ga
atom 11.7128774925885022 10.7432795755974411 10.8101288453173670 Ga
atom 11.8484928823580002 10.7244173458166365 5.4118426006840457 Ga
atom 13.3392706375243257 7.6356371620284280 0.0394147739636898 Ga
atom 13.1544204786732486 7.7929641385441899 10.7981572857105519 Ga
atom 14.9045281132823852 16.2036370267659677 16.1016814643031374 Ga
atom 14.8513806040862715 16.1423887033527826 10.7735087050803191 Ga
atom 14.9045308099582066 16.3535714216663663 5.3601914279903546 Ga
atom 11.5037366650195025 16.2314302845703473 0.0122132867650489 Ga
atom 11.4982176960522775 16.3507223263697625 10.6804259800373416 Ga
atom 11.6967939416440228 16.2833079160912142 5.3913324664582678 Ga
atom 13.1137072388260805 13.2053715596209678 16.1689420472268033 Ga
atom 13.1603719062075140 13.5437383829019584 10.7900878293666000 Ga
atom 13.4631608981652082 13.3981578329672946 5.5415426110901462 Ga
atom 14.9142223659819191 10.5236986756402313 16.0940478115506451 Ga
atom 14.7696845737226710 10.7423688831626372 10.8950671723753665 Ga
atom 8.2556541792366662 10.4760162924728526 10.5305483974331988 Ga
atom 8.6099279575949765 10.5519865346362902 5.5051993373984889 Ga
atom 9.8386379663610910 7.5769826341287372 0.0825768243366548 Ga
atom 10.0773001479084474 7.7070714552150958 10.6474357425957926 Ga
atom 10.0696665082816015 7.5653005770761279 5.3910030116961511 Ga
atom 11.6404154568266609 4.8057039248575801 16.1352315662495798 Ga
atom 11.5192236468899321 4.9055150541260222 10.7745867189314293 Ga
atom 11.6232184316890272 4.7059862329060440 5.5950396033328547 Ga
atom 13.2473456017405624 1.9891571629732283 0.1648671207970234 Ga
atom 13.2187796785450953 1.9603704014442762 10.6884322242457994 Ga
atom 13.3306286021400187 1.9618944908747740 5.4463545580589967 Ga
atom 13.2081453447539143 7.7934311823191136 5.3092601057723527 Ga
atom 15.0356275963831489 4.7384656445881781 0.1988048264912713 Ga
atom 14.9682874718424141 4.8389143068724705 10.8887365573642487 Ga
atom 14.7372991338119181 4.8501651177789746 5.5642702451369050 Ga
atom 5.1182723594717805 16.1441702338478450 0.0449040013311268 Ga
atom 4.9498191681337484 16.4030623173156584 10.5974224065682527 Ga
atom 8.3043730377585305 10.3841814776195136 0.1990782242876112 Ga
atom 6.7742310528566270 13.5306261016950948 5.3738481989891742 Ga
atom 6.6019352008777163 13.2807315664733903 10.7595224822613353 Ga
atom 6.7137512947239850 13.3573333973192128 0.0474941485668414 Ga
atom 4.8582282781201380 16.3773560354661427 5.1583774397308906 Ga
atom 3.3992794219954869 9.7264328349956131 10.0471919906264819 N
atom 3.3258863479061054 9.5906639690309188 15.6219110929115850 N
atom 1.7693237360314613 12.3744660342897213 4.7014324394887499 N
atom 1.5956952432792668 12.4936220459026242 10.0527824717183485 N
atom 1.5882019873814957 12.4910210711857204 15.5887770260642462 N
atom 16.5427861580923086 15.2774222397983142 4.6921996798927248 N
atom 3.3280613332901852 9.5885479798814863 4.7777676588119293 N
atom 4.9569409927912140 6.5512023608292802 15.7283994660597131 N
atom 5.0434129886287060 6.7142040721020599 9.9430613830373176 N
atom 5.0419502894616732 6.7469217321251973 4.8657947282277734 N
atom 6.6635432554406107 3.7612854946758496 15.5292055036087646 N
atom 6.6613123207422467 3.9297488930027566 10.0682431774542227 N
atom 8.2683849015275950 6.5997129589961565 15.5033939556044569 N
atom 8.3392912159401629 6.8112528471002678 10.2801534668072225 N
atom 8.2818382711162108 6.6714881390809042 4.7248014177585507 N
atom 10.0439785877824868 3.7960896623944813 15.5393095050951864 N
atom 9.9890400151583769 3.8477356489548931 10.1584492924079708 N
atom 9.9863426824348629 3.8741602370373607 4.6884517636037755 N
atom 11.6601480447411419 0.9277617401448044 15.5035623773717859 N
atom 11.5369817587203372 1.0232502269742134 10.1315609959062733 N
atom 11.7058653417994254 1.0074696303218367 4.8817421733646693 N
atom 16.5461186942859264 15.4006156084441876 15.5481661530915396 N
atom 16.5287400489382073 15.2022799047999122 10.0850932462067640 N
atom 3.1036792374473574 3.7998773652650080 10.1859418111095561 N
atom 3.1370682995488499 3.9317472901536776 4.7944638699223230 N
atom 4.9356941787661865 0.8744679446604097 15.5734073039054497 N
atom 4.8223445210504785 1.0505724956032594 9.9196022015437784 N
atom 5.1076251206288532 1.1886589488516803 4.5472492538952176 N
atom 0.1214386618305472 3.7401197792030323 15.6064693134147756 N
atom 16.4843359656138624 3.7387675729381460 10.1821687628556248 N
atom 16.4484633850055708 3.9167016602772633 4.6574958036336032 N
atom 1.6826968515383478 0.9410149038771386 15.6546825270561332 N
atom 1.5946682660229630 0.8434539469456117 9.9489520843612347 N
atom 1.6837939557910249 0.9855987694634315 4.6731946984415629 N
atom 6.5432257094030053 3.8512744321707193 4.8931160879127304 N
atom 8.2701017887262296 0.9879519086769468 15.4953821918778143 N
atom 8.2107208839137567 0.9079478803107505 10.1611259662083473 N
atom 8.4082905921689424 0.9166722382087543 4.8169242458518235 N
atom 16.5745067535527113 9.6792440955645702 15.4541992180914924 N
atom 16.4510182314448024 9.6601206053494959 10.1971519873561807 N
atom 0.0318566721047671 9.5789421435931335 4.7066833511872055 N
atom 1.6293917602825136 6.8107229482862461 15.5434374123313184 N
atom 1.5499175746996146 6.7199069131742126 10.2279182676280787 N
atom 1.7193491474518696 6.7373052209090192 4.7455605661372360 N
atom 3.3248293055180933 3.7708400278357499 15.5203440698027499 N
atom 11.8772858220923538 12.4038662269853717 4.7290190609707166 N
atom 13.0572936623762619 9.4486913722549950 15.4652331704487320 N
atom 13.2847067653639588 9.6297767746354399 10.1459834567052898 N
atom 13.4026668053484759 9.7240663304607242 4.6230824753332191 N
atom 15.1026120006327140 6.6517155647176569 15.5086079889641724 N
atom 14.8827754192017370 6.7276263066555639 10.0430432142654027 N
atom 14.8356452407895674 6.7140948067978963 4.7947851508074262 N
atom 6.7999986006550648 15.2247152900132932 15.4639252229035016 N
atom 6.5556410677057766 15.3427166213511441 10.0779537952674474 N
atom 6.5275964117229295 15.3966263882426251 4.7507821544861111 N
atom 8.2960121164983622 12.3759603372958882 15.5458480587508117 N
atom 8.2193238478794228 12.3976794826672450 10.1728108299269930 N
atom 13.1363684684423720 15.3108983731594588 15.5288193386565183 N
atom 13.1099384011205462 15.4025039767166145 10.0804363769981560 N
atom 13.3878287186232097 15.2962703954423720 4.7996698396012354 N
atom 14.8430323883831043 12.2893856775757300 15.4646448451196132 N
atom 14.8070330420667631 12.5224666410546206 10.1609725878546442 N
atom 15.0520491869772322 12.3517760575508859 4.7506180091560317 N
atom 9.8961585674744512 15.2375185286960946 15.4116909214463877 N
atom 10.0170056744566018 15.3710410829030835 9.9720258877072965 N
atom 10.1715423752622058 15.3349252734830923 4.7625145580514978 N
atom 11.6307196905205963 12.4201868166017455 15.3485705801563999 N
atom 11.7307525584144283 12.3974570819531937 10.0785738549306902 N
atom 14.9785465100132313 0.8193133365556791 10.0919849755104245 N
atom 14.9233017854191115 0.9478027328378826 4.7527015915632616 N
atom 3.3498602404205298 15.4128185005591920 15.3980873753773029 N
atom 3.2735443402975677 15.4454902853511431 10.0185770024239229 N
atom 3.3154468880829291 15.3892511025087106 4.5756736727259870 N
atom 4.9325536703861550 12.4095700900354888 15.5309505500087504 N
atom 4.8542980452309674 12.3799216536808796 10.1554466255399856 N
atom 5.1452873558835499 12.3730645565802995 4.7959513014673139 N
atom 6.8470248103497910 9.5515276941501952 15.5159939757249603 N
atom 6.6708462022650163 9.5536355116489755 10.0727091558778774 N
atom 6.9077104144987018 9.7578389150173006 4.8049958794962100 N
atom 8.5095509532761255 12.4583405439896904 4.7027345937993426 N
atom 9.7417318677752256 9.3762399916809933 15.4885421730624895 N
atom 10.1642093922855725 9.7457232911086678 10.0020097025530266 N
atom 10.2737221071232643 9.5178614228056624 4.8631362562513454 N
atom 11.6380049469856175 6.7742701875921707 15.5810395037757861 N
atom 11.7228131469273329 6.8263514794965721 10.1397296076309544 N
atom 11.6174328385881882 6.5440741024453475 4.7950943520489799 N
atom 13.3679255147030798 3.7979626956827826 15.7130023219227386 N
atom 13.2184340374271958 3.9824521893081202 10.1708190497459032 N
atom 13.1673206891816523 3.7184702825463001 4.8629223580843988 N
atom 14.8342251513550814 0.9827555635705363 15.4930940527354650 N
atom 6.5203699585042472 7.6235251297358113 2.0877903820429120 N
atom 8.3402317055404378 4.8116953551158712 12.8511528514766304 N
atom 8.3006553709618007 4.7896912041903938 7.5301513092053947 N
atom 8.2803851359244938 4.7367087345945063 1.9388058721745276 N
atom 9.9552559114461214 1.9686314729384695 12.9082580389456876 N
atom 9.8453795287867987 2.0075567010949493 7.4995416292497206 N
atom 9.9861755115556079 1.8272454470158139 2.0056520450811033 N
atom 0.0742079462916750 13.4317756557627916 12.8702651318009789 N
atom 16.3538177056751017 13.3227478314572192 7.3017166764737258 N
atom 0.0314029281121443 13.4938596631599417 2.0547183817028367 N
atom 1.7272656540024443 10.4393928782820051 12.5895773031591798 N
atom 1.6153587465564365 10.5988160221565799 7.3792572114681469 N
atom 1.6573546287813978 16.2886793887631960 12.9665677817372877 N
atom 1.6456437396025569 16.3930157163017718 7.3376135920304293 N
atom 1.8439476627580047 16.1859014947097641 2.1102247913645562 N
atom 3.3048463300992714 13.3445492077181065 12.7481265606135086 N
atom 3.3305032254189091 13.4046543925392658 7.2931677952346208 N
atom 3.4772478778456661 13.6300269765396749 2.0376188222514271 N
atom 4.9790327646920369 10.4606113528897939 12.8904007724192908 N
atom 5.2029725967076930 10.6097058602981082 7.4613301207666618 N
atom 5.0696831497093076 10.4931005903608909 2.1955420126431440 N
atom 6.7087596190453906 7.6172590408191772 12.7895473781204512 N
atom 6.8892257815777178 7.7585544227723595 7.3586168689350941 N
atom 16.5299909956530193 7.6352810275784879 7.3159499522948659 N
atom 16.4672684141335068 7.6754299114942146 2.1242183308949434 N
atom 1.7860139291508088 4.7782707074120028 12.8620691367882589 N
atom 1.5783050743958844 4.8300713993096593 7.5306150007873915 N
atom 1.6627189300013705 5.0475016254754017 2.0589796592061647 N
atom 3.3375476199390421 1.8948808255483629 12.8292629447507789 N
atom 3.3359243268604644 2.0491063090910817 7.1851724092564480 N
atom 3.4046083940170182 2.1078815263061119 2.1510974222031032 N
atom 0.1074352628601965 1.9135842860460350 12.8621236739713360 N
atom 16.4733165050208221 1.9904955738466648 7.3351416470831721 N
atom 16.5167287633863111 1.7981416502194301 1.8783155179264643 N
atom 1.6174077776693181 10.6166426307544803 2.1477143427805627 N
atom 3.3340492916855027 7.6303426021534104 12.7688977244941828 N
atom 3.2192187760150492 7.6502910205515606 7.4311628230262912 N
atom 3.3734074271175341 7.7764920704626164 2.2763463363142336 N
atom 4.9432822425139191 4.9504711966655472 12.7760712796741718 N
atom 4.9667556154053196 4.8126395949595562 7.4523529513553601 N
atom 5.0317845866941617 4.7418361582930091 2.0822084811565218 N
atom 6.5182836024205839 1.9841038371277318 12.7805483105992401 N
atom 6.5066594413250218 1.8613015694536159 7.4763541297583362 N
atom 6.7251518056164103 1.8338391211683118 1.9815688219212906 N
atom 16.5296933872770815 7.5594068514224899 12.8462146790566987 N
atom 14.9777903219359665 10.6457196531440754 1.8947506926660223 N
atom 8.1182556027440249 16.1604397395125758 12.6973100868356603 N
atom 8.1826664661258981 16.2240429003720230 7.3314907957490494 N
atom 8.2716592091792567 16.1975392745272764 1.8477919334229072 N
atom 9.7610610781622391 13.3249460655361318 12.7509652197399124 N
atom 10.1542717115200869 13.2436148706515393 7.4553589873963437 N
atom 9.9507557087376259 13.3290711475509767 1.8921992497332347 N
atom 11.6213835037843136 10.6494951327374654 12.8902902427666177 N
atom 11.8190095041190180 10.7419451764668494 7.4948788109390350 N
atom 11.6919150739047097 10.5682416286679324 1.9696563448710060 N
atom 13.2187570738915152 7.8208958031436904 12.7125582285629939 N
atom 13.2918977556315223 7.5046437778832402 7.4019861640968880 N
atom 14.8555116521711241 16.1343497232413391 12.8208134273000578 N
atom 14.7330381762946576 16.2394237559442516 7.4277988884923882 N
atom 14.9466882312494160 16.1851874335601593 1.9707802160136563 N
atom 11.5142689307627695 16.3080045525706367 12.7650179505898365 N
atom 11.5004736713443378 16.2930748330851500 7.3564153075770156 N
atom 11.6030793943113704 16.1817741598125515 2.1443960449971073 N
atom 13.2513179923456299 13.4412840708634409 12.8777024230091222 N
atom 13.3714305471503128 13.6190363215425752 7.4532065670258048 N
atom 13.2967377779074507 13.2928000905147154 2.0320987274780382 N
atom 15.0459833111048482 10.6596602055598719 12.8305202511447298 N
atom 14.7727504519461963 10.5104419671461162 7.4845629304310171 N
atom 8.4688738279586389 10.5399464038498323 7.3908486710339307 N
atom 8.4060966166107232 10.4685593144348541 2.1640218494600845 N
atom 10.0263967038478654 7.6257045845053959 12.7963873254913434 N
atom 9.9667431949716683 7.5128332229888279 7.3467216272207096 N
atom 9.9815623703399758 7.7687158559928786 2.0962991101475605 N
atom 11.7859008582473823 4.8405450599427642 12.7331527677586713 N
atom 11.5517273748690084 4.7365577898187006 7.5938514812734983 N
atom 11.6418655429029592 4.8178244282025178 2.0201896900434497 N
atom 13.3098771370098738 1.8678951453137131 12.6924415502407673 N
atom 13.1989154623677702 1.9413455391331880 7.5813481005604793 N
atom 13.1265070665198333 1.8116967211789956 2.1906295724953879 N
atom 13.4181200628486188 7.7691732727486640 2.0745031810513352 N
atom 14.9260983413801025 4.7272303946711896 12.8652673710290433 N
atom 14.8217093208713049 4.6849676274012966 7.5150069684486187 N
atom 14.8180093291083779 4.7577366856274255 2.1745106032054542 N
atom 4.9215816407310236 16.2265452932015712 12.6185617176243028 N
atom 4.8472650352218833 16.2615241813548153 7.2280837130101645 N
atom 5.0046558532725491 16.3303295393315118 2.0158630838462090 N
atom 6.5693707835993802 13.1979400262323097 12.7192849805870019 N
atom 6.6767540311522557 13.4747853852295520 7.3842790249472250 N
atom 6.7229647945229063 13.3386542116778273 2.1009757764800407 N
atom 8.3053205468648272 10.5010455102105063 12.6440816560202371 N
