#===============================================================================
# Created using the Atomic Simulation Environment (ASE)

# Thu May 11 08:59:12 2023

#=======================================================
lattice_vector 15.6273739999999997 0.0000000000000000 0.0000000000000000 
lattice_vector 0.0000000000000000 16.2404434541285205 0.0000000000000000 
lattice_vector 0.0000000000000000 0.0000000000000000 15.2445761999999903 
atom 15.6272628090877266 14.4457179194690202 2.4850906656313252 Ga
atom 1.4865357134695258 11.6185418476245630 12.7753896416539341 Ga
atom 1.4041578320918267 11.6678712379017000 7.5667711546922609 Ga
atom 1.4985223978014188 11.8280404894074120 2.4236138720090299 Ga
atom 3.2065486282684659 9.0214838141075653 12.7309551993885552 Ga
atom 3.0677640366379197 9.0155266170653814 7.6125861243397130 Ga
atom 3.1335243956236614 9.0743091784422028 2.4786320342605803 Ga
atom 4.7137227263382080 6.4138471645587112 12.8537211973688308 Ga
atom 4.6981987535533758 6.3624164109694030 7.5171054759152165 Ga
atom 4.6106197644150582 6.2493926491317859 2.5854382745262008 Ga
atom 6.1723808511517104 3.5700870358198138 12.7575377122647620 Ga
atom 6.3110447383069381 3.5822313920579401 7.6720666735114396 Ga
atom 7.8193835840579924 6.2359554975374101 12.7891366838051201 Ga
atom 7.6924183236234240 6.3236499589244985 7.6639318772616081 Ga
atom 7.6966266479216268 6.1682298654727203 2.6101286636451015 Ga
atom 9.4531920357759454 3.5837321326873508 12.7819276136736573 Ga
atom 9.4251922448608205 3.6112861807702963 7.6266644806875723 Ga
atom 9.5779987872688697 3.6192625181648159 2.4837582581705102 Ga
atom 11.0425794047644299 0.9252080861229995 12.6477219206848766 Ga
atom 11.0270469332136809 0.9736040355648711 7.6691075576122323 Ga
atom 10.9531032622715081 0.9193525209777339 2.6163717540088380 Ga
atom 0.1082124623421159 14.4549253404497389 12.6648374834049360 Ga
atom 15.5894156350630464 14.4758029388308653 7.6160142529988653 Ga
atom 3.1067882148778709 3.6522713653440029 7.5888945527544935 Ga
atom 3.0931777658778037 3.4196524744486414 2.4937903210415313 Ga
atom 4.6047980549959373 0.7805906851892300 12.7796361119788564 Ga
atom 4.6884326053902381 0.9809250295965315 7.5824204840545173 Ga
atom 4.7286975313428279 0.8716864064725113 2.4950162816064267 Ga
atom 15.5941528875385220 3.6653199581578582 12.6970196354971208 Ga
atom 0.0109102099691866 3.6027866387969891 7.7257697238049943 Ga
atom 0.1530374986689142 3.5920459075227060 2.5584254105179745 Ga
atom 1.5902943333712172 0.9184227807984013 12.5918003471664441 Ga
atom 1.6485184399894259 0.8358030912215868 7.6027321693058783 Ga
atom 1.5449797484966075 0.8325575360410769 2.6425838440876412 Ga
atom 6.2651138366855390 3.4952031844250113 2.5356974564883048 Ga
atom 7.7723959880852904 0.8586678827661424 12.7377045738355754 Ga
atom 7.8047198387232930 0.9045289553386004 7.5901939758866241 Ga
atom 8.0139948295289489 0.9006057376928104 2.6555266027829516 Ga
atom 0.0747602938072670 8.9758816356411515 12.7134217907233111 Ga
atom 15.5719499962798444 8.9965771619964219 7.6650465122908775 Ga
atom 0.0644116375861306 8.9954669867839208 2.5923671794167285 Ga
atom 1.5804280894952170 6.2965525864209946 12.6789151394483710 Ga
atom 1.5804403025175642 6.3103409455633708 7.6044464314138605 Ga
atom 1.6084051849255729 6.2247500555903033 2.5029160112274393 Ga
atom 3.1771702030458235 3.4819761633517690 12.7475803623352935 Ga
atom 10.8609675608508223 11.8082146168852304 2.4667997414467102 Ga
atom 12.5970577234099927 9.1815354572031733 12.6531374335185500 Ga
atom 12.4212716452190541 9.0786756451884045 7.6286588796497163 Ga
atom 12.4157112365489546 8.9881090842780740 2.5868878777246156 Ga
atom 14.0618962596311139 6.3954228389185399 12.6071139894844908 Ga
atom 14.0113042501142413 6.3898450542937741 7.7027535760637038 Ga
atom 14.1080612404526367 6.2414648279719405 2.5030852373662906 Ga
atom 6.2681550336676501 14.3627489452950492 12.6374386817209157 Ga
atom 6.2169002525504897 14.4919836146108416 7.5746401247812400 Ga
atom 6.3111089578663124 14.3325782231413452 2.4537182764265166 Ga
atom 7.8250245404285472 11.7160120074136263 12.7452879532023697 Ga
atom 7.8302975205642262 11.6974595944580582 7.5988968744308680 Ga
atom 12.5055663187713098 14.4995583948528317 12.6600596584621687 Ga
atom 12.4299041916961066 14.4262377795334320 7.5690113245721724 Ga
atom 12.5197005364270417 14.4971711766011939 2.4212203667666730 Ga
atom 14.0903675496883611 11.7194860788686857 12.6752162643409338 Ga
atom 14.0961373333396001 11.7676974266258050 7.6644173088139800 Ga
atom 14.0475656611522872 11.6074434411023546 2.4552710889158691 Ga
atom 9.2964404540428003 14.4741415497939325 12.7853290953176000 Ga
atom 9.2822018464774878 14.5588920151301604 7.5790189837551782 Ga
atom 9.1919440880445080 14.2874418444487841 2.5857582799442529 Ga
atom 10.9024357576464226 11.7593702687791275 12.7621441765232699 Ga
atom 10.9957113296314564 11.7528382973672070 7.6022216036949493 Ga
atom 14.0385834076358442 0.8018971283262145 7.4971690298668126 Ga
atom 14.1016835520135864 0.9525571610188737 2.4290959377342798 Ga
atom 3.1367942036903744 14.4270703999281338 12.6666580436957101 Ga
atom 3.0637790991555289 14.2866035023290436 7.5772703060845243 Ga
atom 3.1971186390490902 14.4177497827080234 2.5293000404133217 Ga
atom 4.7596526077089916 11.7588666073895354 12.6223843745722650 Ga
atom 4.6556561254151170 11.6050845079242126 7.5750377813139949 Ga
atom 4.6608604775809459 11.7042252429126314 2.6086629444571257 Ga
atom 6.2608481376327765 9.1365615074862490 12.7185163503350012 Ga
atom 6.2814581724900505 8.9919444960814641 7.7494760962429909 Ga
atom 6.3241312084787893 8.9430274783930486 2.5830751084120824 Ga
atom 7.7730435629038652 11.6124551515214485 2.6302650994909440 Ga
atom 9.4444910643200348 9.0098920606824819 12.7224882168065516 Ga
atom 9.3968140557200854 8.9918002088015925 7.6107883834649517 Ga
atom 9.4601405663096880 9.0388550768293214 2.4940526478801943 Ga
atom 10.9673634174345551 6.3380675379319769 12.7964912179363512 Ga
atom 10.7961419688181017 6.2833725584142961 7.6553561065814320 Ga
atom 10.9762130029551415 6.4051953297142141 2.5725996819888142 Ga
atom 12.5733713097532238 3.7169146167699365 12.6837439676694022 Ga
atom 12.6325578176083937 3.7258150134918857 7.6116606414845336 Ga
atom 12.5910224472399790 3.6656474955326876 2.5411078939656524 Ga
atom 14.1224746748053018 0.9874921189354164 12.6711378805491606 Ga
atom 6.1238549333499241 7.2237718046748727 5.0464700403429230 Ga
atom 7.8568973865242269 4.4704854833505312 15.2402463191404216 Ga
atom 7.7832066435106997 4.4720781718750136 10.2645603284262066 Ga
atom 7.9488980690083251 4.6278944388806416 5.0722750924807452 Ga
atom 9.4320993628662784 1.6988546968072944 15.2305166069039668 Ga
atom 9.3214912195066102 1.7877162581667247 10.1814563996210836 Ga
atom 9.4179384784121734 1.8528268822856147 5.2549060912643597 Ga
atom 15.5698642512307277 12.6846770095372889 15.1320369486961965 Ga
atom 15.5391718759053692 12.7387786897304292 10.2211993699437560 Ga
atom 15.5721065411024338 12.5945808697659736 5.0809893065987284 Ga
atom 1.5350952122298818 9.8961063032151788 0.1011931256802945 Ga
atom 1.4240000065421223 9.9207156868377098 10.1720056293843051 Ga
atom 1.5946516164877205 15.3781057487321480 15.1978567414218695 Ga
atom 1.5234362862910669 15.3862713433125311 10.0593287882121363 Ga
atom 1.4215964692882936 15.2088872483524877 5.0041342951256977 Ga
atom 3.0900052830840261 12.6590934364106769 15.1770436788844254 Ga
atom 3.0945313737658293 12.6682669195364621 10.1643751561816966 Ga
atom 2.9546274382229512 12.4876385926001667 5.0915023784191868 Ga
atom 4.7248177399191071 10.0229872896312759 15.2223335440736527 Ga
atom 4.6342253038112959 10.0105442981591590 10.1209589252947953 Ga
atom 4.5687922507614607 9.8906367420682244 5.1063753064443018 Ga
atom 6.2698558222841010 7.2437115541042916 15.2153509798842705 Ga
atom 6.1553097490335711 7.2690814238479380 10.3104910609085998 Ga
atom 15.5445220648388140 7.2570453133014627 10.2830860624255482 Ga
atom 0.0214926829862087 7.2674337754619023 5.0358150119176495 Ga
atom 1.6804525937005557 4.4553226911593233 15.2176687256255594 Ga
atom 1.5432449561023560 4.5202039518274280 10.2778629372784742 Ga
atom 1.6411517968752301 4.4793850792061933 5.1217113630743309 Ga
atom 3.0193412342735120 1.6580323039063996 0.0694085283788674 Ga
atom 3.0876931055720473 1.7856925055861015 10.0557398500446542 Ga
atom 3.1804016268910082 1.7571939151803266 5.1029930862996746 Ga
atom 0.1083306913618501 1.8490711941588052 15.2367122748945008 Ga
atom 0.0169403302572050 1.7734623188607563 10.1792575958589016 Ga
atom 0.0455596254589714 1.8174728989206930 5.1096697216478679 Ga
atom 1.5074320332798388 9.9244330892641894 5.0074719373845777 Ga
atom 3.0925752607149546 7.1018352728319556 0.0835754719933696 Ga
atom 3.0390566562683161 7.1893606273916557 10.0293152096809646 Ga
atom 3.1461646716712988 7.2366338169138977 5.0336019304386159 Ga
atom 4.7400990330479198 4.4652093713736782 0.1074876572634509 Ga
atom 4.6593186318435658 4.5195477239817601 10.1932974569893915 Ga
atom 4.7839669329116061 4.4263518981114585 5.0164744671153008 Ga
atom 6.2451908922385195 1.7771520050568705 0.0404480919680187 Ga
atom 6.2573644601135614 1.7151428505423283 10.1406900880183581 Ga
atom 6.3049931769562759 1.9238584418696441 5.0532868630011194 Ga
atom 0.0406015202631136 7.1632344394676419 0.0872849187724596 Ga
atom 14.0200188744940508 9.7548199333348329 5.0024719608504098 Ga
atom 7.8223002364350140 15.3001782036492813 15.2277369359882382 Ga
atom 7.8344657731612699 15.3552607475137872 10.0311360825078086 Ga
atom 7.7964947873450106 15.3697044077509961 4.9417926400579821 Ga
atom 9.3505139207445573 12.6675320069597195 0.0002944967965989 Ga
atom 9.4466288802997145 12.6144352173621730 10.1264731914419812 Ga
atom 9.3135053841655218 12.5189992737978795 5.1365136706326702 Ga
atom 10.9637315533796738 9.9414506160563612 15.1351813622206315 Ga
atom 10.9665697023439783 10.0483271316518223 10.2107938262293505 Ga
atom 10.9835816030438149 9.9374541158958962 5.0418699757314354 Ga
atom 12.5658854269588858 7.3196965015140938 15.1600958031089696 Ga
atom 12.3989503190368637 7.2210163737324722 10.1824651616105903 Ga
atom 14.0472456993054813 15.4035227542748867 0.0164910895115225 Ga
atom 14.0713624654025651 15.3968247590245699 10.1337561659536490 Ga
atom 14.0232240381071538 15.4680782041809763 5.0312234191499492 Ga
atom 10.8706451351445370 15.4121442706699341 0.0990830494619924 Ga
atom 10.8677760367443934 15.2659790025541575 10.1895492009714310 Ga
atom 10.9058125049229577 15.2557803784932613 5.0504848762835550 Ga
atom 12.5798299166709278 12.6423338193113697 0.0070046603504115 Ga
atom 12.6004964371820698 12.7536754811924240 10.2230721292627464 Ga
atom 12.5723164535341230 12.6258682132956537 4.9676379754403701 Ga
atom 13.9937317165848487 9.9613338556643978 15.2038326330400064 Ga
atom 14.0220193007733940 9.9351612993584393 10.1740972825228155 Ga
atom 7.8044036322460375 10.0235539273577601 10.1362544022258465 Ga
atom 7.7388673749390797 9.8671829630862362 5.1137854166365413 Ga
atom 9.3366089196397830 7.2465261145259818 0.0469300532070635 Ga
atom 9.3273518951250427 7.2381858341737901 10.2887243661880241 Ga
atom 9.3683309362229803 7.2809934561676020 5.1616549465366255 Ga
atom 10.9367533389802176 4.5447391280936724 0.0279779941676697 Ga
atom 10.9503452194147926 4.5172487149568790 10.1553771572306388 Ga
atom 10.9306271820798742 4.6063660884126589 5.1037308759211566 Ga
atom 12.6424824373585363 1.8419254830486913 0.0819906177534246 Ga
atom 12.4680002360391224 1.8231151774757859 10.1736903059019248 Ga
atom 12.5262599550654414 1.8226695238461754 4.9828608432624844 Ga
atom 12.6149373392241522 7.2743288565755924 5.0762767511255698 Ga
atom 14.0072475579852984 4.6821541812847176 15.1788891109302426 Ga
atom 14.2359525010154631 4.5632434579041572 10.1888222988636095 Ga
atom 14.1414205144840466 4.4149223590879147 5.0725020943220303 Ga
atom 4.7432010925002004 15.3259237120233731 0.0063926412744704 Ga
atom 4.6445718971804641 15.4338984870899996 10.1474409580304119 Ga
atom 7.8785547355562722 10.0273741816545012 15.1926855213679204 Ga
atom 6.2481679988235328 12.5774327234840264 5.1799772470102576 Ga
atom 6.2369162612550166 12.6562872214991184 10.0526293006083662 Ga
atom 6.2130424525001988 12.6987342900502789 0.0557113994722537 Ga
atom 4.6203370878654662 15.2711287263219884 5.0726706812146407 Ga
atom 3.0802410922535457 9.0758124723744835 9.5356573770854265 N
atom 3.1075798933543717 8.9797648493462319 14.7643002284322780 N
atom 1.4618262274979796 11.6359657570800508 4.3573364250870474 N
atom 1.3543819909356907 11.7025589385395090 9.5534332824089425 N
atom 1.4202162562817318 11.7578605906828901 14.6321937187129869 N
atom 15.5651006885374503 14.3853945680455890 4.4608639966291914 N
atom 3.0979488543877860 9.0394568806405573 4.2874876923687308 N
atom 4.7088707377193915 6.2189025340807316 14.7228472224794267 N
atom 4.7029894051644634 6.2918008395070411 9.5613461864291409 N
atom 4.5425857077466709 6.2434988193830145 4.5092602008387423 N
atom 6.3599968807519733 3.4973961345081297 14.7154743496142064 N
atom 6.2688380601638238 3.7356806950057915 9.6718687952227569 N
atom 7.7978300840803980 6.3055708770403944 14.7020398241356123 N
atom 7.8186321084613288 6.3696049104015433 9.6450376489605016 N
atom 7.7478233303430022 6.3453653275524191 4.4335220132711433 N
atom 9.3667953282496033 3.5567569476035481 14.7040032394221285 N
atom 9.3796283868488679 3.6666535720485007 9.5773666187642892 N
atom 9.4723930761334394 3.6610197041296675 4.5517658464752309 N
atom 11.0615410289535454 0.9529940068492559 14.6586603799198407 N
atom 10.9562183307279941 1.0200479834814304 9.5910350749525932 N
atom 10.8629781659774043 0.8679535183562362 4.4308723715756093 N
atom 15.5725558548328991 14.5928207270142796 14.5736256984129398 N
atom 15.5394609232543015 14.3506723879665401 9.5236060688376671 N
atom 3.1397690017582880 3.7034088466010182 9.4976141947677686 N
atom 3.2668261735652258 3.5811338332271148 4.5058895159792423 N
atom 4.7148223376868144 0.9255843063047231 14.6306911621170386 N
atom 4.6107616769368418 0.9195617050100455 9.4249275869830846 N
atom 4.7736697699043598 0.8704453298843705 4.5096711519593793 N
atom 0.0370994985524920 3.6857015062920082 14.6485921257585794 N
atom 15.5826818015729955 3.5318256714533529 9.6346444296340863 N
atom 0.1066533424268148 3.5639106733500947 4.3552355744086491 N
atom 1.6126319768714379 0.8750092521808410 14.5503891726089378 N
atom 1.5388154338961770 0.9200805284221045 9.5301968539104589 N
atom 1.6618796356289065 0.7907773481048948 4.4459340486637053 N
atom 6.3358223003208956 3.5864329565379127 4.4932315119344102 N
atom 7.7575959521401918 0.8404343663570977 14.5399174127207367 N
atom 7.7819068693544633 0.8437618459872119 9.4950228779932981 N
atom 7.9145359333286489 0.9499529796596266 4.4820273964281538 N
atom 15.5152538125036372 8.9458772699138862 14.7530983037368717 N
atom 15.5105789789818118 8.9457535767934644 9.5809765479707867 N
atom 0.0112759584823609 9.0704550063098015 4.4869907720487952 N
atom 1.5200868243853132 6.2692748751199918 14.6197794776968752 N
atom 1.5065900352166426 6.2844801052649846 9.4669998941843350 N
atom 1.6304369561607823 6.3343861724632413 4.4334326027643050 N
atom 3.2327455117189672 3.5458393202287168 14.6475626688161622 N
atom 10.9674560844537474 11.7224373226408272 4.3815334484917852 N
atom 12.5467439209377698 9.1295495059492158 14.4938630236758677 N
atom 12.4376402615289621 9.1012789726186387 9.4633169069016514 N
atom 12.4244406394170870 9.0267697751745946 4.4007316547084114 N
atom 14.0648690280463224 6.3438520983125333 14.5440425212318587 N
atom 14.0001052113913609 6.3356242044976732 9.5251969500093789 N
atom 14.1514183499637927 6.3564166684883334 4.3491130946274925 N
atom 6.2598321846304525 14.4786111166967277 14.4609184119999146 N
atom 6.2299079234318677 14.5637172580735257 9.5236895518694222 N
atom 6.2571457443675014 14.4166791514121879 4.3781764253461501 N
atom 7.7692616987534366 11.7626769935858491 14.6185639469030040 N
atom 7.7564473718980462 11.8304671144750326 9.5056011248477876 N
atom 12.4218778940135781 14.5116473178451635 14.7192798161968170 N
atom 12.4792445708804127 14.5386124815565907 9.3661033981743280 N
atom 12.5221781093231534 14.4758331124269279 4.4277244818286334 N
atom 13.9957564790021056 11.7684607938546986 14.5340056792549515 N
atom 13.9770196169517913 11.7370513418754463 9.5133901432203860 N
atom 14.0805166745647288 11.5056317235817502 4.4239616105371331 N
atom 9.3267111822857665 14.4148547909494802 14.6759290287968192 N
atom 9.3217233023697137 14.4136535487095934 9.4331241137548041 N
atom 9.3205148526146466 14.2716673353792096 4.5159033925690499 N
atom 10.9843692563158672 11.7341782954752372 14.5544243667845521 N
atom 10.9791620399322696 11.8135223073589817 9.6241004450181151 N
atom 14.0499990788534674 1.0209943911941000 9.4679850736347699 N
atom 14.0849240970383622 0.9754456230968125 4.3094823689853365 N
atom 3.0546518827476610 14.4221076002344795 14.6902741121604379 N
atom 3.0759075278530346 14.3963840501571596 9.4666770380681893 N
atom 3.0595486777822130 14.3403450969915554 4.4755363006785336 N
atom 4.5572711872526046 11.6988030790175550 14.6212717254872082 N
atom 4.5810840901047163 11.8365733945440095 9.4817941652141631 N
atom 4.5824327561113813 11.6345705961568893 4.6337832344814780 N
atom 6.3358709143500569 9.1008868344565599 14.6213674279419479 N
atom 6.1783444809972528 9.0426620268765063 9.6666015264911458 N
atom 6.2208681134063779 9.0251495789381089 4.4108128857962585 N
atom 7.7826981093148166 11.6827661421743034 4.4988484594098699 N
atom 9.3641802839921606 9.0000577358401834 14.5538127132322366 N
atom 9.4214932579337933 9.0826856780002867 9.5839792336596616 N
atom 9.3484016456336185 8.9790461234128998 4.3962412594492895 N
atom 10.8806994461300501 6.3731037793478116 14.6488903620135922 N
atom 10.9104850294261997 6.3306426134330218 9.5439266645147001 N
atom 11.0183990846745488 6.3899509362260716 4.4599148762125402 N
atom 12.3957112281042932 3.7049636279813005 14.6399393878966713 N
atom 12.6073182824763137 3.6217190082417221 9.6469668178142278 N
atom 12.5782806610075699 3.6374578070682371 4.5099250371151918 N
atom 14.1466983680070868 0.9224499902755144 14.6527932530587552 N
atom 6.2060610677929819 7.0844363401106936 1.9145958966751866 N
atom 7.7141438765094863 4.4092883660816131 12.1709217310568274 N
atom 7.8506957385862863 4.4886642307276174 7.0369189072027840 N
atom 7.8607895750252874 4.4885487150352334 1.9755548456250558 N
atom 9.3660042898754980 1.7451722619352423 12.0139458259359486 N
atom 9.2800431748420653 1.8728501408265572 7.0829772677859859 N
atom 9.4637817090680318 1.8442473938446147 1.8816373653634524 N
atom 0.1268541653659178 12.6371111105143239 12.1185266170466566 N
atom 15.5570358130038233 12.6597690824685074 7.0691495884542830 N
atom 15.4956348677018401 12.6862887070469128 1.8061278817327913 N
atom 1.5603918598423043 9.7920519344212469 12.1059296671291836 N
atom 1.4505164570557079 9.8532122776110107 6.9111067075702746 N
atom 1.5691998696079341 15.3827706419977925 12.0016587942065573 N
atom 1.5364531266383734 15.2594351179985601 7.0285263880938382 N
atom 1.6129286171661807 15.3238479818534561 1.9116148097534058 N
atom 3.0675918760673175 12.6077785041005956 12.0382994296657557 N
atom 2.9636011827900575 12.5714945992066180 6.9464725917316601 N
atom 3.2792570795929459 12.5938002105083484 1.9279540538886095 N
atom 4.6392668669617443 9.9965530292024116 12.1090731594164094 N
atom 4.7641854110030275 9.8896531575874587 7.0398405122410841 N
atom 4.7073403206958364 9.8446778191688917 1.9430380057671255 N
atom 6.2120996760734046 7.2001094066120084 12.2309017729680853 N
atom 6.2550255059065138 7.3265102125892412 6.9773779544716286 N
atom 15.5646311611701780 7.2377973911031805 6.9758698881382655 N
atom 0.1086151593373044 7.1452000634228412 2.0249061936010064 N
atom 1.5283873506832732 4.4969112196909693 12.1409132243440201 N
atom 1.5558166340743718 4.4599972803164425 7.0313987278087344 N
atom 1.5286444264068655 4.4664450420042696 1.8939563690748031 N
atom 3.0873416250635550 1.8209678023160802 11.9342852462919442 N
atom 3.1337722912790893 1.8388638465963258 7.0385529732046201 N
atom 3.1721487340068357 1.7259591414240010 1.9596719043432433 N
atom 0.0593009869205515 1.9607449167725091 11.9998491821688695 N
atom 0.0411132157112627 1.7417964187786938 6.9050657663169428 N
atom 0.1261935385973958 1.8043175448306954 1.9697285842232932 N
atom 1.5025095015510190 9.8951154690365097 1.9804538666659146 N
atom 3.0259525470332691 7.3075828037031858 12.0368633024498255 N
atom 3.0675427676077329 7.1854694709469094 7.0448512234230121 N
atom 3.1263642243956808 7.1451084980886304 1.9828395476027063 N
atom 4.7187569432687653 4.4878625871709188 12.1143913632650424 N
atom 4.7229237686697800 4.3604068317642461 7.0742413431848412 N
atom 4.6898827460140833 4.4502784201483099 1.9774053902134481 N
atom 6.2295850898517759 1.7539216415775867 12.0102504297145849 N
atom 6.2175979372432773 1.8099403307670605 6.9188851234878452 N
atom 6.4355911597026703 1.5979548386413120 1.9068081877003993 N
atom 0.0815177617251931 7.1070012475582782 12.0753364984082179 N
atom 13.9915109150518724 9.8934334767753640 1.8885439090194964 N
atom 7.8253873206839302 15.3299228524440512 11.9923146576408755 N
atom 7.7293593781002770 15.4006623308233426 6.8650289702753495 N
atom 7.8831250937799195 15.3986804152877532 1.9317870546831131 N
atom 9.4638995421363656 12.6070284476640477 12.1127168871381841 N
atom 9.4193139405229509 12.6540554486761998 7.0631199433630085 N
atom 9.2523367062748321 12.6015988024693524 1.9299797969134989 N
atom 10.9551316329042443 9.9711715801432490 12.0717322697242455 N
atom 10.8691786924002844 9.9885896544429702 6.9451575856759069 N
atom 10.9261448782379809 9.9993829411689727 1.8389001213175882 N
atom 12.6052654534849129 7.2528755533686340 12.0728791140096821 N
atom 12.5086307432901087 7.2614820497083494 7.0444771402461486 N
atom 14.1703658403676798 15.3339843077184508 12.1512608680248881 N
atom 13.9694489571932703 15.2911953830080876 6.9115746158010678 N
atom 14.0593379920887873 15.4598001669798126 1.9381479237457326 N
atom 10.9225327690542766 15.2569401384748922 12.0581237080487842 N
atom 10.7879810937885665 15.3057567990552883 6.9052072015671611 N
atom 10.7525791679211711 15.2958445211817757 1.9987778796916076 N
atom 12.5967150823330734 12.6179927272019494 12.1672755191748028 N
atom 12.5973466334014965 12.6459679714731710 6.9335058747873815 N
atom 12.4953752805268810 12.5913633795355029 1.8720259680960760 N
atom 14.2731067085175436 9.9406958388537188 12.0811478505039336 N
atom 14.1075166154469045 9.9906508596083370 6.9297157883357423 N
atom 7.8767743877598484 9.8440839962828246 7.0369665022898698 N
atom 7.8768007538045675 9.9304963421838881 1.8572065995640326 N
atom 9.3151975203836557 7.1541156797446641 12.2781481967930741 N
atom 9.3779388952914005 7.1915305919879815 6.9678684287301200 N
atom 9.3654000746012986 7.1110217647744687 2.0587114976554983 N
atom 10.9636096606888476 4.5434488647984415 12.0549109378695167 N
atom 10.9171489273008770 4.5425420685755142 6.9574085281566100 N
atom 10.9890023751106849 4.6040978887345148 1.9355467954615595 N
atom 12.5401549489706170 1.8248413715599225 12.0209554424301022 N
atom 12.4523699891028432 1.8806808866054177 6.9770182518129582 N
atom 12.4618115539194516 1.8114976273392500 1.9111839196202782 N
atom 12.6977593000862310 7.3538632265463715 1.8704455192144005 N
atom 13.9990626641163676 4.5635807297400541 12.1411399620027449 N
atom 14.2241167052673685 4.5306366460799579 6.9786943071076282 N
atom 14.1729924696714473 4.4947054887908715 1.8238387842483299 N
atom 4.6097865398676419 15.2571577562492298 12.0843711530895526 N
atom 4.6289601964934741 15.3501283528350569 7.0418374835295703 N
atom 4.8122938297041200 15.2880827125881602 1.8720322421959319 N
atom 6.2159349849385572 12.6440227458345618 12.0358260947573807 N
atom 6.1976524371828923 12.6130788369008808 7.0579418246622412 N
atom 6.2246755398900548 12.5934950141153887 1.9374844218793270 N
atom 7.8517462480767808 9.8937829144417826 12.0440118604211754 N
