#===============================================================================
# Created using the Atomic Simulation Environment (ASE)

# Thu May 11 08:59:09 2023

#=======================================================
lattice_vector 15.6273739999999997 0.0000000000000000 0.0000000000000000 
lattice_vector 0.0000000000000000 16.2404434541285205 0.0000000000000000 
lattice_vector 0.0000000000000000 0.0000000000000000 15.2445761999999903 
atom 0.0068492865241712 14.4871403502123837 2.5184819838868489 Ga
atom 1.5489612273426494 11.7190285270726591 12.7306313510921232 Ga
atom 1.5936990681056589 11.7306702171324826 7.6881750056935205 Ga
atom 1.6394850258936853 11.7187653094060398 2.5982526221246616 Ga
atom 3.0836738290393608 9.0184667032754415 12.7017134282754824 Ga
atom 3.1393905323978091 9.0664438420284981 7.5648170930796663 Ga
atom 3.1221115628641107 9.0312539208892915 2.4406221180096663 Ga
atom 4.6135356254704600 6.3117054711191170 12.7274642360364574 Ga
atom 4.6353668144479148 6.3250016758515075 7.5139077113637835 Ga
atom 4.7019289519285428 6.3609679535812544 2.5395424563684639 Ga
atom 6.2363910406272183 3.6230235380631539 12.7338495610671476 Ga
atom 6.2096299415325724 3.6174551910043360 7.5582870390577588 Ga
atom 7.7655693588128925 6.3569676952855438 12.6008352627689160 Ga
atom 7.7982046356933772 6.2675502429384169 7.6160203140412870 Ga
atom 7.8871322142793856 6.3683940413705065 2.5613493518763013 Ga
atom 9.4002002667322540 3.6394620999087484 12.6355026929994612 Ga
atom 9.2801352897097225 3.6243202592684103 7.6291624700467224 Ga
atom 9.3728806154009945 3.5874146055107228 2.5441786456663329 Ga
atom 10.9031721972542375 0.9535952484405384 12.8224458340923455 Ga
atom 10.9424799471664524 0.9386094888884842 7.5832629846971820 Ga
atom 10.9388241199015610 0.9286796449029325 2.5339681207545128 Ga
atom 0.0368071269924749 14.4327019402326684 12.7467722935743168 Ga
atom 0.0129674004654998 14.4538560607519795 7.5845022311757964 Ga
atom 3.1750136978377910 3.6542206534623083 7.5890831097966416 Ga
atom 3.1163851764526611 3.6885741511137962 2.6364850137500362 Ga
atom 4.6855258916974085 0.8794449838431360 12.7416367750493258 Ga
atom 4.7109675829796194 0.7936176775121911 7.5696570439956394 Ga
atom 4.6760860795798704 0.8665766867613458 2.4893285915036105 Ga
atom 15.5948289148423669 3.6717641624121131 12.6553725103655914 Ga
atom 0.0533999542301069 3.5928072542010483 7.6344175086449662 Ga
atom 0.0305695579562492 3.5620783045725459 2.5384363286729648 Ga
atom 1.6562354255561040 0.9704674282281748 12.6535478326542741 Ga
atom 1.5979306519571324 0.9708744029474117 7.6379194148226226 Ga
atom 1.4932934743730542 0.8970164262614876 2.5381307942947906 Ga
atom 6.2367112431118317 3.5514245238714897 2.4923297184333508 Ga
atom 7.8703834475739400 0.8901108712236113 12.7081604843632938 Ga
atom 7.7637139629458529 0.8928670769322818 7.6195709157380476 Ga
atom 7.8544272553548593 0.8124384745151818 2.5087746322877478 Ga
atom 15.5736017172229086 8.9660423337661932 12.6957566060124964 Ga
atom 15.6180942361235147 8.9918029384597631 7.6496252763547359 Ga
atom 15.6258352067571131 9.0701719305677049 2.5520136818125536 Ga
atom 1.5695857257874417 6.2942516067443259 12.6562415157924875 Ga
atom 1.5294218239571904 6.3879878627144473 7.6804895142816934 Ga
atom 1.5531185818049074 6.3316882505585674 2.4460775698121728 Ga
atom 3.1730410815886176 3.6918207495805557 12.5549660945442021 Ga
atom 10.9381067384925270 11.7913577747343101 2.5854275679591026 Ga
atom 12.5824904342682338 9.0482563928748334 12.6569787161702436 Ga
atom 12.4957167818734725 8.9542220025830019 7.5148171017042191 Ga
atom 12.5568213934249382 9.0347259305507084 2.5083205611195747 Ga
atom 14.0005242546092816 6.3262066818446971 12.6827399626471511 Ga
atom 14.1160454339774368 6.3383390509421629 7.5964751225710465 Ga
atom 14.1174046470282093 6.3591908052980672 2.6457929482213447 Ga
atom 6.3048153758781833 14.4294559165673348 12.7288709904816439 Ga
atom 6.2246100606502557 14.3848994551067122 7.6260366365785268 Ga
atom 6.2732021486246152 14.3908871507831417 2.5967723122770399 Ga
atom 7.8621985405498842 11.7609543818539688 12.7448349612780856 Ga
atom 7.8546598205482665 11.6767601784884842 7.6076085647513318 Ga
atom 12.4409144918345014 14.4406122168846505 12.6823754658180583 Ga
atom 12.4721083218007340 14.4346561470658248 7.6940394819373052 Ga
atom 12.5488526693865570 14.4597482021593535 2.5553251199751879 Ga
atom 14.0582523586706394 11.7882907896624189 12.7428034791185993 Ga
atom 14.0039852544168983 11.7320612969411755 7.6226919808910782 Ga
atom 14.1483749158440197 11.7352607744321453 2.5824568938647605 Ga
atom 9.4175227336400162 14.4686407503427077 12.7577893697788269 Ga
atom 9.3895595482609018 14.3886426778876437 7.5302427694264766 Ga
atom 9.3177110638249374 14.4029068460467471 2.4957095271851220 Ga
atom 10.8894315411077738 11.7171158082960858 12.6527532957248976 Ga
atom 10.9868488581786412 11.7178088647597267 7.5681927365761563 Ga
atom 14.1122449484586507 0.9015522657018549 7.6433485281523650 Ga
atom 14.0595477828999709 0.8888666785236068 2.5192799056505817 Ga
atom 3.1032000480775728 14.4162181026498217 12.7091980641200522 Ga
atom 3.0498733478172526 14.3803780721462946 7.6246134959714711 Ga
atom 3.1618657202770168 14.4666670343773784 2.6083984850353379 Ga
atom 4.6722568626826657 11.6722003828547543 12.6966535521506536 Ga
atom 4.7933596267554881 11.7738529401680161 7.6889340243663691 Ga
atom 4.6883665887362991 11.6294439835141983 2.6334502945594069 Ga
atom 6.2298063285526677 9.0081889897409244 12.6329027412223169 Ga
atom 6.2603822235776940 8.9976605738466269 7.6124728691364849 Ga
atom 6.2920926899256351 9.1217579580988293 2.5452567246813174 Ga
atom 7.8797786251760744 11.6968878439081827 2.4959952648749315 Ga
atom 9.3111386616649536 8.9751422506559440 12.7099605699561664 Ga
atom 9.3486321745190910 9.0116739355451916 7.6195225455749380 Ga
atom 9.4756479732249819 8.9829950049709009 2.5531342610598746 Ga
atom 10.9009706432517746 6.2809095638327213 12.7279810591330929 Ga
atom 10.9335059646505428 6.3216135931524722 7.6323557813199319 Ga
atom 10.9979969275958140 6.4315211210870249 2.6062148473746998 Ga
atom 12.4786594466717045 3.6077619650677031 12.7197956833540609 Ga
atom 12.4158970529031105 3.6011777242575502 7.6699556206527157 Ga
atom 12.4619678686731810 3.6089177155997225 2.5044157825752884 Ga
atom 14.0330798003331978 0.9089559607374631 12.7580049053930651 Ga
atom 6.2949643991838089 7.1695849701769063 4.9647851667348704 Ga
atom 7.8427321423061001 4.5405989621590290 0.0533892528910358 Ga
atom 7.7042048381635029 4.5900516688476465 10.2009170473875397 Ga
atom 7.8214109920268307 4.4589532033503723 5.0365181897264755 Ga
atom 9.4531508877881585 1.8839646762949178 0.0673405899910614 Ga
atom 9.2619507437805524 1.7371743721959225 10.1026694364042573 Ga
atom 9.3876640987477877 1.7988494090334057 5.0556024507092250 Ga
atom 15.6202580699525146 12.6266975464881792 0.0106518364428872 Ga
atom 15.6115499008808509 12.6852158669684307 10.1837092458078935 Ga
atom 15.6166667291133194 12.6511663602977400 5.1291447823908136 Ga
atom 1.6074609907946613 9.9022030529625411 0.0139913816623962 Ga
atom 1.4775516460487761 9.9293361817390675 10.1992121014249886 Ga
atom 1.5397882508687053 15.3627480595141925 0.0049961960731810 Ga
atom 1.4580853437673815 15.3362037592021050 10.1846614123414891 Ga
atom 1.5731557099433742 15.3939675134037692 5.0636044046395314 Ga
atom 3.1329003730445386 12.5851335032258689 0.0251179400888992 Ga
atom 3.1132598596710408 12.5385431110323662 10.0865273849640573 Ga
atom 3.1393111126497986 12.6499231839888377 5.1512717114923383 Ga
atom 4.8253830186716478 9.8968244570784041 15.1811225446164002 Ga
atom 4.6189949292559529 9.8695232726678821 10.1373396798223983 Ga
atom 4.7309252796150085 9.9323976306112272 5.0784682511840051 Ga
atom 6.2645794095016463 7.1700834172099661 0.0547021566983889 Ga
atom 6.1835898272653038 7.2918794161029590 10.1044936833440975 Ga
atom 15.6038760814658861 7.2270215969695402 10.2056069018607420 Ga
atom 0.0364526463024348 7.1566867029989556 5.0981599464057625 Ga
atom 1.6342243610043199 4.4697844945013188 15.1953724258847416 Ga
atom 1.5900080515703756 4.5090368237170564 10.1538332128890225 Ga
atom 1.5377167892139501 4.5396583564922466 5.1266684037875514 Ga
atom 3.1415961360910982 1.8098958353542069 0.0452663313199905 Ga
atom 3.0638706951803041 1.7894825409096806 10.0735705070470107 Ga
atom 3.1989838184645647 1.8305605105785152 5.0666788024051668 Ga
atom 0.0936526744895875 1.8320727773325796 0.0386573910179671 Ga
atom 15.5612126365277454 1.8162863700710912 10.1807557928309187 Ga
atom 0.0853412260019370 1.8137460639533833 5.0423069954496471 Ga
atom 1.5803730056524261 9.8634646599904237 5.1463249120299190 Ga
atom 3.1315062433429137 7.2746967766401962 15.2221734834052818 Ga
atom 3.1127109523060148 7.2375407111529357 10.1421628352674098 Ga
atom 3.1120358344601731 7.2554459209739743 5.0425435133554126 Ga
atom 4.6626172949656093 4.4991075147544004 0.0267321152921141 Ga
atom 4.6319907654113575 4.5476320695688237 10.0598472243291486 Ga
atom 4.7287993519892932 4.4926118992919299 5.0323890224454191 Ga
atom 6.3046038853036261 1.8303475637674902 0.0099862486103559 Ga
atom 6.1833793829926620 1.7719744811259510 10.2230925127540289 Ga
atom 6.2958152162856376 1.7868671591346943 4.9991636369560570 Ga
atom 15.6147667825587675 7.2053667377314410 15.2109192762156216 Ga
atom 14.0059510917165717 9.8453896709826019 5.1099244906342056 Ga
atom 7.7789164337049046 15.3335812223708867 15.2342271054635354 Ga
atom 7.7698644917765787 15.4091940724887237 10.1544777743719834 Ga
atom 7.8729773343043119 15.2697273639559388 5.1370019433689960 Ga
atom 9.3779072824279037 12.6561138525838306 0.0186248787546929 Ga
atom 9.3150730386787437 12.6559418291093788 10.1380017907149806 Ga
atom 9.3736176542879726 12.6349638979890173 4.9879191748818563 Ga
atom 10.9331034149636697 10.0133978875562555 0.0175342674675297 Ga
atom 10.8845217448584801 9.9612820466811129 10.1834180785116484 Ga
atom 10.8472753579086199 9.8994876011534103 5.0815726971935300 Ga
atom 12.5892929882956341 7.2610331201732539 15.2293601592232051 Ga
atom 12.4098128868070212 7.1898851314532619 10.2064845464639724 Ga
atom 14.0640602276303408 15.2826532020449299 0.0224564865687288 Ga
atom 13.9369648207167138 15.4210917467343194 10.1933125893714553 Ga
atom 14.1017983193313512 15.3171989488884126 5.1829681799306151 Ga
atom 10.9202022718752403 15.3411842944297270 0.0711579431741740 Ga
atom 10.8859527142770034 15.3695504267987424 10.0906629624645525 Ga
atom 10.9701525799292146 15.2903931204345422 5.1277147411118511 Ga
atom 12.5179736102246402 12.5638097152559745 15.2195708928330031 Ga
atom 12.4410076331132409 12.6097610087360223 10.1816082834690711 Ga
atom 12.5077460931445419 12.5137788164029544 5.0599155983728386 Ga
atom 14.1148077077588017 9.8856373437241967 0.0106175138681660 Ga
atom 14.0078372591833737 9.9331216899490631 10.0537035004467228 Ga
atom 7.8380050046673526 9.9795974662543880 10.1763837036040474 Ga
atom 7.8096128705996106 9.9107330765928232 5.1239751828964444 Ga
atom 9.4198734230099426 7.1790923306600032 15.2255827339413621 Ga
atom 9.4739727078661549 7.2208031069697709 10.1406086672631179 Ga
atom 9.2399317907660325 7.2357277951022265 5.1229228309357380 Ga
atom 10.9863035302170609 4.5052260902152881 0.0625446220217358 Ga
atom 10.8888234062162592 4.4288990273092974 10.1317219577073701 Ga
atom 10.8216668687965694 4.4763039376354801 5.1140409937163680 Ga
atom 12.5517640826195596 1.7790460802210895 15.1690545466014353 Ga
atom 12.5086771060711825 1.8387480849299214 10.2106567644747130 Ga
atom 12.5447328446916497 1.8396943558602166 5.0670546410676973 Ga
atom 12.5320586100466702 7.1919835099153300 5.0938218810260798 Ga
atom 14.0621804701946509 4.4619301150001514 0.0659609432674238 Ga
atom 14.0291997260588523 4.6332328552462014 10.1546410942269301 Ga
atom 13.9765687731706088 4.4570703208095646 5.1690494294368179 Ga
atom 4.6994945216761996 15.3008675432556895 0.0071946712369978 Ga
atom 4.6669357278740140 15.3261932143978008 10.1943312757922726 Ga
atom 7.8247015280036303 9.9171764580644748 15.1977420588595216 Ga
atom 6.2627149133123066 12.6237311036859872 5.0461363349750172 Ga
atom 6.2395892310428787 12.7078454446810181 10.2071845375725054 Ga
atom 6.2122569344651737 12.4806864242523687 0.0488643597950261 Ga
atom 4.7497405425843393 15.2634107330622619 5.0230689295882742 Ga
atom 3.0846571148908413 9.0506896046986345 9.5401335214467178 N
atom 3.2116376399775892 9.0096550113689133 14.6207996497292356 N
atom 1.5293480561513764 11.6811530704655908 4.5540090679215659 N
atom 1.4981012510565999 11.6739030519539853 9.5699029649888274 N
atom 1.6184937065249934 11.7300350957011936 14.6722987518010761 N
atom 0.0381037549451370 14.4790373614269345 4.4910048658814770 N
atom 3.1076618064617811 8.9923046920063463 4.3625544797594120 N
atom 4.6354316284496235 6.3081292920457361 14.6328615137700524 N
atom 4.6932273853506645 6.4206692871349214 9.4931179593236994 N
atom 4.6742660819452793 6.3990957016865400 4.4547055830710054 N
atom 6.2452075654713983 3.5849111591465181 14.7142174474846890 N
atom 6.1808013810430475 3.5793804670623119 9.5257994871577143 N
atom 7.8211302197342052 6.3278335508936880 14.5962474142222227 N
atom 7.8025730257538868 6.3495559200600891 9.5072290050064137 N
atom 7.8755782137358743 6.2736052452689917 4.4559175484409863 N
atom 9.4330921120453599 3.6033153690341644 14.7141254328552868 N
atom 9.2476231686552310 3.7046286398601591 9.5258883261196274 N
atom 9.2954359986180428 3.5659031791093097 4.4634735672604222 N
atom 11.0325040429872807 0.7772840458036698 14.6942646138537771 N
atom 10.9597600945840874 0.9502411769317808 9.4983419792808981 N
atom 10.9716377660025408 0.8675125617766383 4.4371915368157859 N
atom 15.5149436496521425 14.3893524336764287 14.6185188389019061 N
atom 15.6198348285896511 14.4716349833948215 9.6179854800750348 N
atom 3.0361825975543235 3.5751440099275396 9.4022579301508475 N
atom 3.0968916537925453 3.7191193101676552 4.5078092075066323 N
atom 4.6693052957748034 0.8722133365158070 14.6766101973752878 N
atom 4.7006987896919439 0.9007360717119676 9.4214277767398311 N
atom 4.7692777722850561 0.8706808402359790 4.4737679119925087 N
atom 0.0929446455564706 3.6302671599979059 14.5738883075011199 N
atom 15.5821290630606537 3.7220039130960880 9.5752731544188983 N
atom 0.0623965730738299 3.6551317202961187 4.4282923801280543 N
atom 1.6868500280564513 0.8633510842218175 14.5799502296032308 N
atom 1.5303915783652569 0.9864296746057969 9.4974899820047956 N
atom 1.5869271140853880 0.9668870532588821 4.4338883728725040 N
atom 6.2319074163356705 3.6385674021889889 4.4123677005544408 N
atom 7.9617500636190597 0.8614769328951793 14.5689641699944019 N
atom 7.7428687307787571 0.9192922315734902 9.4588790280524560 N
atom 7.9279981972231086 0.9365866667595698 4.4580823323585941 N
atom 15.6144077860083339 9.0328272288409508 14.5677432103278157 N
atom 0.0222794193374055 9.0730037109380053 9.4866591314189623 N
atom 0.0925870783623944 9.0287399058200499 4.4470849840540421 N
atom 1.6398091177846177 6.3584637132914406 14.5851827274659183 N
atom 1.5560717574384066 6.3055012944475823 9.5885323077545355 N
atom 1.4958132001485140 6.2666517959203256 4.3800900630690913 N
atom 3.1900186051639370 3.5352453346418269 14.5244355333322446 N
atom 10.9070806118552515 11.7699184054695714 4.5455758485589222 N
atom 12.4809953143595589 9.0668764042307934 14.5652200281814448 N
atom 12.4734136904235609 9.0282068323109463 9.4750993104752137 N
atom 12.4873236251014017 9.0164479854512098 4.3555295903684481 N
atom 14.0419290228328570 6.3429191654479711 14.5532569021836462 N
atom 14.0331594169728398 6.5384345567021622 9.5414441604396441 N
atom 14.1085006526583072 6.2772959123010033 4.4496385800720457 N
atom 6.2409150296983533 14.3540457211502108 14.6743721747552165 N
atom 6.2087563506442356 14.4007466461148148 9.4829346816208435 N
atom 6.3500660428281464 14.3769009772130740 4.5037385169823168 N
atom 7.7763266652224905 11.6880727177200132 14.6306488410317979 N
atom 7.7318486779775562 11.8240617603221523 9.4943501464389399 N
atom 12.4842074541861887 14.4416499544582546 14.7042298445785029 N
atom 12.4712828253096522 14.4815711854959588 9.5369810684735210 N
atom 12.5457910476711980 14.3041681095579030 4.4755263764223825 N
atom 14.0633502541633852 11.7961506706901353 14.6203134116945748 N
atom 14.0654643574086062 11.7477518545339059 9.5463301868430719 N
atom 14.0601330298920200 11.7183075006741788 4.3617363053206981 N
atom 9.3401148838205668 14.4586448340204026 14.6503181371550504 N
atom 9.3009305061537848 14.3463519245832174 9.5674527921788375 N
atom 9.4038992704929303 14.4091814189800456 4.4186720611575261 N
atom 10.8548553869092004 11.7914169919561687 14.6183396232180431 N
atom 10.8556034280452192 11.7762773108287107 9.5569632553921515 N
atom 14.0481951288570333 0.9201195359929307 9.5900804730496247 N
atom 14.1103580407278315 0.9143880125539409 4.4981737577260601 N
atom 3.1312912024710520 14.3639407566775930 14.6686069112859503 N
atom 3.0475294227766327 14.3713987791374560 9.4856392343296996 N
atom 3.1278729060873585 14.4007595700565467 4.4806363936741098 N
atom 4.6407040725213680 11.6242270229426961 14.5308315032353850 N
atom 4.7950941231839979 11.6913221835299606 9.5641489370928152 N
atom 4.7367080101305428 11.7524405541899259 4.5900744541616385 N
atom 6.2161325644128063 8.9028915033114000 14.6022611137474740 N
atom 6.2790762557601898 9.0692720391609498 9.5108664689629361 N
atom 6.2376607294560733 9.1336074798524844 4.4066685751500314 N
atom 7.8216085228274359 11.7278562636000849 4.4400155410070603 N
atom 9.4126609767255491 9.0333780194248110 14.7172907933277664 N
atom 9.4191710770002910 9.0672682127946942 9.5226203307065962 N
atom 9.2990132553840930 8.9617889243917404 4.5038140136594214 N
atom 10.9742889720120154 6.3218166384178245 14.5577911773014765 N
atom 10.9063839228513793 6.3052234079615994 9.5720284151547492 N
atom 10.8848656186112542 6.3846271728845814 4.5477326489198715 N
atom 12.4449733492961361 3.5543026889020215 14.6196068372888313 N
atom 12.4897062717609000 3.6024866924716745 9.5054786280858092 N
atom 12.4598766974119375 3.7038288372410388 4.3601743146801226 N
atom 14.1636390190941235 0.9265480648240256 14.6317854540179404 N
atom 6.3459836459185350 7.3239964280223981 2.0551088215677362 N
atom 7.8991633278086146 4.4690415805840304 12.0577510999557109 N
atom 7.7496356471134256 4.5572946134196473 7.0439708185121148 N
atom 7.8201365265807832 4.5117478933012318 1.9655159659736392 N
atom 9.3713526942140888 1.7258713956666940 12.1210959985196443 N
atom 9.3621382794970138 1.8080093746079755 6.9778937135776413 N
atom 9.4531361818422610 1.8032093761840973 1.9193800724227241 N
atom 0.0385574945646721 12.5702578263140676 12.0664834750771153 N
atom 0.0228502315249011 12.6345161487120716 7.0346168150033312 N
atom 0.0695087815990935 12.6365133231414486 1.9389499494355102 N
atom 1.4918625485205248 9.8116863431435029 12.1029593456040825 N
atom 1.4925130372298820 9.8851216098496018 7.0246848908518684 N
atom 1.6302048317437094 15.4219294824924198 12.1341360833582232 N
atom 1.5505108684834712 15.3811787133855837 6.9467567542183151 N
atom 1.5681117559600390 15.2987053951748901 1.9842460473108727 N
atom 3.1020488894037297 12.5370920995704154 12.0603849881540786 N
atom 3.1620228424362149 12.6141891826344654 7.1161414507630782 N
atom 3.2548406869613768 12.6632415407504109 1.9556494359631471 N
atom 4.6498760150107366 9.9264650968450052 12.0552331524487748 N
atom 4.7168465865568381 9.9348635037643067 7.0974266588239958 N
atom 4.6858123237984266 10.0287683976618869 1.9857918098709579 N
atom 6.1775208124260441 7.1697189401580266 12.0778778277651728 N
atom 6.2321542553619897 7.1904985393497762 6.8679352481033105 N
atom 15.6123190951393642 7.1928411705752451 7.0226174795368994 N
atom 0.1136591365005671 7.2109165713707171 1.9064669953793383 N
atom 1.6722279449518758 4.5292371924592363 11.9475180340475209 N
atom 1.5865936736889839 4.6561851896732565 6.9775145536338696 N
atom 1.6364580955288579 4.5142684002723978 1.8835332355613399 N
atom 3.2490533848437009 1.7025977772683487 11.9471253810395641 N
atom 3.2201864384645833 1.8595801926667679 6.9347786977016419 N
atom 3.1604043386014480 1.8527761215042369 1.9941680762474083 N
atom 0.0313769232174939 1.8935112360036130 12.0630709876841031 N
atom 0.0975615449301622 1.8238170893304639 7.0444394580494665 N
atom 0.0222542399087312 1.8208431974785988 1.8921273988263603 N
atom 1.6033925288097570 9.9753181287972641 1.9714057754207577 N
atom 3.1230949927030895 7.3469395627525707 12.0635623916117147 N
atom 3.0652972014150306 7.2095430443021700 6.9338808266898360 N
atom 3.1691935886769258 7.2216928391494202 1.8470357645809217 N
atom 4.6975921209489835 4.5152907330678840 12.0075585707278787 N
atom 4.7427734339624070 4.5061091573288001 6.9326468784900532 N
atom 4.6181313929309722 4.4492813703592367 1.8175591988379411 N
atom 6.3031374934266307 1.7963333017523306 12.1236750223026313 N
atom 6.2715019391197337 1.8457673923740086 6.9055046237011295 N
atom 6.2796056458507588 1.6928399143183721 1.9117614265446743 N
atom 0.0005669902983075 7.2551293155728587 12.0870224737996903 N
atom 14.1011832922379767 9.9202272542181564 1.8798319601081828 N
atom 7.7547552591320690 15.3734643498990753 12.0759130322495150 N
atom 7.8515490124372640 15.3093022263609644 6.9647082083832936 N
atom 7.8087538114475832 15.3943297553109257 1.8593512047053526 N
atom 9.3730123394223543 12.7204263297890137 12.0875290036296601 N
atom 9.4360271205413806 12.6304202729195207 6.9188544425281879 N
atom 9.4224014937085734 12.6515836805602966 1.8784036878328616 N
atom 10.9106253531069299 9.8833160781662901 12.1222645432609699 N
atom 10.8178016849897460 9.9590021947983924 6.9711717952637571 N
atom 10.9029205917146061 9.9392559744243574 1.9490887147366107 N
atom 12.5547605527941215 7.2588144555322653 12.0763070286301080 N
atom 12.4226586252184532 7.1223549305113742 6.9578954567794149 N
atom 13.9676647520808679 15.3227653851076973 12.1192795066102033 N
atom 14.0650282088737271 15.3254883105438147 7.0461974898446718 N
atom 14.0771890788165095 15.3279138186637294 1.9330650937704426 N
atom 10.9205151999532131 15.4267689923270694 12.0846923680057259 N
atom 10.9422637539928225 15.3867721640660218 7.0102048226772364 N
atom 10.9241991948849488 15.4052360394033219 1.9769716250957858 N
atom 12.4478795310900399 12.6514846668992753 12.0998642685889717 N
atom 12.6379893157121881 12.6858920638754693 7.0032109774822588 N
atom 12.5235580171927339 12.5679683339165358 1.8931298541231063 N
atom 14.0787557587874677 10.0078303839125500 12.0300005251400037 N
atom 14.1417734184361219 9.9923011384564013 7.0334189828078388 N
atom 7.8151781558189581 9.7807600616280723 7.0291705388522434 N
atom 7.8460779811769363 9.9795349378529625 1.8758808264459419 N
atom 9.3347549408991188 7.2249440352922178 12.1473826055560323 N
atom 9.3763502162931935 7.2550042937173300 6.9751791061646431 N
atom 9.3773763899040965 7.1510875123840441 1.9023409342207764 N
atom 10.9539539126661367 4.4121221071564305 12.1215077437203469 N
atom 10.9379992279707583 4.5037948411860818 6.9448771356693380 N
atom 10.9347687235896256 4.6267997976636730 1.9434076419768689 N
atom 12.5246208803461592 1.8411597821283270 12.0903112968565605 N
atom 12.4492129944700416 1.8835873529021441 7.0259434803744067 N
atom 12.5881993776279835 1.8115123583010453 1.8789292489829161 N
atom 12.6167830659963922 7.1985253272526517 1.8594092457175289 N
atom 14.0908074478347292 4.5555452087160582 12.0127646401202277 N
atom 14.0764979501957672 4.5275308994620929 7.1783121467847142 N
atom 14.0341018875686423 4.5407183771703554 1.8996031366430615 N
atom 4.7522408275189845 15.2698323241997080 12.1488526617481902 N
atom 4.7005076552311502 15.3482106408134769 7.0279751600273768 N
atom 4.6906872480095805 15.3595991986326617 1.9394111271825569 N
atom 6.2172278362093678 12.6225760523342920 12.0991865209656648 N
atom 6.3411611123626042 12.6024728867990294 6.9563036885828282 N
atom 6.2273010228898409 12.5900025686213102 2.0932576677526535 N
atom 7.8047345538402713 9.9580512478881129 12.1381815036100349 N
