#===============================================================================
# Created using the Atomic Simulation Environment (ASE)

# Thu May 11 08:59:14 2023

#=======================================================
lattice_vector 15.6273739999999997 0.0000000000000000 0.0000000000000000 
lattice_vector 0.0000000000000000 16.2404434541285205 0.0000000000000000 
lattice_vector 0.0000000000000000 0.0000000000000000 15.2445761999999903 
atom 15.6227467623992347 14.3702116125618566 2.4707830799908392 Ga
atom 1.5760236729574446 11.6708900444256454 12.6112361051509936 Ga
atom 1.6839898628838488 11.7626963239781350 7.6873881184241855 Ga
atom 1.5317787827504616 11.7762212018187125 2.4983783902466419 Ga
atom 3.0467458369448219 9.0607896438330631 12.7796027763611715 Ga
atom 3.2040677585649640 9.2508621707883982 7.6872575262650846 Ga
atom 3.1587309521202358 9.0231335623660502 2.6097725501904896 Ga
atom 4.7080166441906126 6.4562190295612103 12.6218670698427573 Ga
atom 4.6880980592500769 6.3297020218808093 7.6033948325949767 Ga
atom 4.6834886485816725 6.3872588624623727 2.6984450701165006 Ga
atom 6.3473348193812704 3.6164069571509243 12.6036626248439632 Ga
atom 6.2459106189463354 3.5329429219594233 7.5649312469064514 Ga
atom 7.7834381973809430 6.3380934881953603 12.8211663614358660 Ga
atom 7.8011070843928305 6.2323337008323110 7.7124943638131374 Ga
atom 7.8084949259357792 6.3255226723321805 2.5940322371857083 Ga
atom 9.5003134485246452 3.4986113873719260 12.7989005795016109 Ga
atom 9.2571507482754729 3.5421852915625931 7.5443860804655509 Ga
atom 9.3681370545618829 3.5169007015638196 2.5818372386569677 Ga
atom 10.9311321746669581 0.8475037734880282 12.6529423123736375 Ga
atom 11.0430654438164488 0.8160419891838596 7.7175500208993633 Ga
atom 10.9555927698708135 0.8456857493282032 2.5856348367538597 Ga
atom 15.5170702845377999 14.4180341669549943 12.5456951322256938 Ga
atom 0.0011000235487257 14.4266309281988026 7.4659325055210601 Ga
atom 3.1272237957289524 3.5635714937881198 7.6283119070773031 Ga
atom 3.1673343283276658 3.5072595211587023 2.4297976130661829 Ga
atom 4.5383423856885754 0.7467978585808439 12.7752003631117574 Ga
atom 4.6952747160871215 0.8697211353534495 7.5568337909580077 Ga
atom 4.7510405923350980 0.8733418326911248 2.7380580951284794 Ga
atom 15.5697519939145774 3.5819256249991849 12.6551487933394569 Ga
atom 15.6132551271336233 3.8491980589732959 7.5652912369932208 Ga
atom 0.0497878317143756 3.6526150144583966 2.4801486194434670 Ga
atom 1.4311108936289860 0.9605186376175352 12.6075520319937926 Ga
atom 1.5071324666846153 1.0185550398311063 7.6417562398103804 Ga
atom 1.3470483212615239 1.0352915008985026 2.4977844357829704 Ga
atom 6.2812334685046123 3.5359620752608492 2.6368341229379175 Ga
atom 7.7664105026871066 0.9518808692514061 12.6753252599324249 Ga
atom 7.7257270217123217 0.7862257114802664 7.6739384895271554 Ga
atom 7.9057273820912304 0.9694743021053922 2.5344394638628787 Ga
atom 0.0411234204838433 9.0569463048337351 12.6678275396397471 Ga
atom 0.0676155450096532 9.0098601886549972 7.6051783599982556 Ga
atom 0.0213078662870394 9.0880298900415806 2.6533614862434782 Ga
atom 1.5704901755833314 6.4106474843959376 12.6917140994242157 Ga
atom 1.5687177627145126 6.3138667022514845 7.4362294652290029 Ga
atom 1.6448561797285297 6.3738924941929600 2.4913512949089447 Ga
atom 3.0867337809616830 3.6798527408849719 12.8371009117718025 Ga
atom 10.9117867586266204 11.5926327158426741 2.5298448510240483 Ga
atom 12.3596114198229809 8.9472525912716119 12.6391738265840132 Ga
atom 12.5401563120453439 9.0713283692459648 7.6125684846157338 Ga
atom 12.5724610224650739 8.9570174098419280 2.5588209234203170 Ga
atom 14.0669725338560312 6.2765914277567516 12.6197049960700820 Ga
atom 14.0325002295190604 6.2669607929458726 7.6652681074118005 Ga
atom 14.0786264074846770 6.2771171912538666 2.5351430532501080 Ga
atom 6.2069010803197058 14.4327153583098688 12.6599904566167805 Ga
atom 6.3244186118700148 14.4461414613105052 7.7277921974387418 Ga
atom 6.2276254300250686 14.4505296263387795 2.6867422038099065 Ga
atom 7.7715838015317855 11.8070814561018107 12.7567387309028284 Ga
atom 7.7987263818627355 11.6778228862530380 7.7440247142970362 Ga
atom 12.3920967985920054 14.3800767443442208 12.6584278603747453 Ga
atom 12.6790919319573163 14.3374062048998905 7.5327347793498607 Ga
atom 12.4854997334685436 14.3972073993733165 2.4168685310747287 Ga
atom 14.1276028423953655 11.5465101439357340 12.6471154157207817 Ga
atom 14.1463986047460519 11.6852851988670494 7.5264463025094566 Ga
atom 14.0486911783310120 11.7193153714533480 2.4824172534989337 Ga
atom 9.3499780961480674 14.4407394912179026 12.6417576535802016 Ga
atom 9.5210595415824777 14.3732334878264041 7.6088664479394517 Ga
atom 9.3334642840166637 14.3326286095973927 2.6612332025239520 Ga
atom 10.9124574404642001 11.8618598058161080 12.5930218570739640 Ga
atom 10.8918901499945697 11.7671304309966516 7.6698946891676689 Ga
atom 14.0601255912035494 0.9179803216960122 7.5181908192616262 Ga
atom 13.8884857575801011 0.9653478486813428 2.6325747555946655 Ga
atom 3.0473861472687322 14.3803095867843140 12.7333994584123271 Ga
atom 3.1639007567759760 14.5451126946840574 7.6957214640462066 Ga
atom 3.0053717698007629 14.5707180709280522 2.5333721511911094 Ga
atom 4.6576944977997474 11.7769661059172464 12.7434920153281794 Ga
atom 4.6097584631097632 11.7615103521866260 7.7104730323074602 Ga
atom 4.5199538979919218 11.9358920905144679 2.5024356319944010 Ga
atom 6.3301322330330398 8.9490011099976225 12.8389850023505918 Ga
atom 6.3565925071353586 9.0058790127988164 7.6398630110665851 Ga
atom 6.4097869606724114 9.2726300053526618 2.6053390559019993 Ga
atom 7.8531488741955284 11.8034456401816072 2.5456298798199097 Ga
atom 9.3955939942149485 9.1061119470542611 12.6672438471186446 Ga
atom 9.5483358084466730 8.9828305025630701 7.5434208120464898 Ga
atom 9.5034450228535849 8.8938673645125359 2.4182271248742975 Ga
atom 10.8440039040139151 6.2118791189804199 12.7689996929411489 Ga
atom 10.8737133168287858 6.2348603399662590 7.2954512763659967 Ga
atom 11.0466729003553876 6.1055041660873322 2.5175206378922144 Ga
atom 12.5310625756260183 3.5052710119066028 12.7408492928913493 Ga
atom 12.5446384015135735 3.8460844435417774 7.6062516007864494 Ga
atom 12.6044019747986891 3.5596726880742060 2.5354063877657760 Ga
atom 14.0659310675916629 0.8706874877624381 12.5961259523727147 Ga
atom 6.2221976604906626 7.3115190192695012 5.1036679858997003 Ga
atom 7.7753523960249753 4.3102895092096549 0.0750777322750193 Ga
atom 7.8769897919326812 4.5861753534965022 10.2538456265280402 Ga
atom 7.9368462913319746 4.5057612769391753 5.1674739313119069 Ga
atom 9.3026707984276005 1.7916393847401679 15.2363288944436182 Ga
atom 9.3524064146774304 1.8760125353397792 10.0375655284404797 Ga
atom 9.4535625346521677 1.7835323184480663 5.1128135665107370 Ga
atom 15.4980172358937196 12.5581688883844258 0.0228497548611962 Ga
atom 15.4852500359167298 12.7064670938928472 10.1126955079246557 Ga
atom 0.0835431156338673 12.5271824230763560 5.0739119280427918 Ga
atom 1.5989617152860036 10.0034054141680127 0.1118160151915344 Ga
atom 1.5513745507887524 9.8867979162373025 10.1167516457213384 Ga
atom 1.4032481975492446 15.3361432435473706 15.2109517266450993 Ga
atom 1.4701100106610350 15.4391733346783315 10.0887257769694738 Ga
atom 1.4497243172317786 15.4723542332767394 4.9659286732596799 Ga
atom 2.9874338667482689 12.5584909502221258 15.2406054775753432 Ga
atom 3.1308493143151890 12.7509226326494325 10.1810377639704175 Ga
atom 3.0541861644524730 12.8067638485452022 5.1530708265587792 Ga
atom 4.6957468746761419 9.8297565353624137 0.1812510478599459 Ga
atom 4.7226110510450265 9.8987864897793099 10.2617740635056300 Ga
atom 4.6829610540718445 10.0255518777175219 5.0188712690812585 Ga
atom 6.2747864791625485 7.1839816471316258 0.1215839010896840 Ga
atom 6.2258893813312195 7.2354107114643869 10.2250256853109249 Ga
atom 0.0662995953783410 7.2699544470505879 10.0722133098462088 Ga
atom 15.5920007586315581 7.1549157537040786 5.0786937483095480 Ga
atom 1.6171646981917707 4.4876714353466625 15.2382183015246060 Ga
atom 1.5906127300236883 4.6180245400020956 10.0432575103410588 Ga
atom 1.6402522812784401 4.4927643581435373 4.9237255660271853 Ga
atom 3.0793319897172506 1.6786957741869217 15.2075288940495899 Ga
atom 3.1002798431322778 1.7623861393591149 10.1017038242439376 Ga
atom 3.2190531417656114 1.8112521270184385 5.1816623616565414 Ga
atom 15.5904144540839038 1.6862626220301853 15.1853987579439771 Ga
atom 15.4107264623901763 1.8847714395877533 10.0727910660962596 Ga
atom 0.1068752346427652 1.9227651974566748 5.1298146945777292 Ga
atom 1.6197190808240862 9.9683865367249371 5.0963431368694785 Ga
atom 3.0063106601770593 7.1862775095821183 0.0258730841122989 Ga
atom 3.2052768152806741 7.3575062231570483 10.0422312992456035 Ga
atom 3.2241342731808977 7.2403728562803487 5.1584729010444059 Ga
atom 4.8921522031616416 4.4741940041461286 0.0627890751949830 Ga
atom 4.7836301296759052 4.4716531030074806 10.1591363036302234 Ga
atom 4.9103247918274739 4.4620127726351315 5.1258902345645003 Ga
atom 6.1026842459058726 1.6303355762781377 15.2056247413301531 Ga
atom 6.1378843434662222 1.8474034887180790 10.2634690691428752 Ga
atom 6.3941724778266815 1.7713062340061188 5.0811615075885719 Ga
atom 15.5546312192779421 7.2645502430934323 15.1718926443999003 Ga
atom 14.2832094639491096 9.9264725333573800 5.1122029601437271 Ga
atom 7.7609426946484588 15.2714176107453312 0.1509381630493364 Ga
atom 7.8708223200519942 15.3962517879123109 10.3219384880823171 Ga
atom 7.9984937347269218 15.3349995638171954 5.1709203377069262 Ga
atom 9.2929253728017045 12.6229727806329457 15.2400105706104263 Ga
atom 9.2538270280009876 12.6580369638220400 10.2708242586033744 Ga
atom 9.3821338172518960 12.5990180573101291 5.1107538629812455 Ga
atom 10.9485973721468692 10.0362139154204080 15.1949247618628540 Ga
atom 10.9948147453460638 9.9961728736495861 10.1829759725530931 Ga
atom 10.9664838561820552 9.8153570499685987 5.0956373381158526 Ga
atom 12.5069212303866077 7.2756322548886256 0.0751258168351099 Ga
atom 12.4800359116176374 7.2334953693390984 10.1191900857685706 Ga
atom 13.8526973524102566 15.3513755086484682 15.1055060246849582 Ga
atom 14.1148100173210604 15.3211510485657989 10.0115438728133253 Ga
atom 14.1559039772736881 15.3601392606103495 4.9533649702174039 Ga
atom 10.7346396354436475 15.2413443530338721 15.2344318747937084 Ga
atom 10.9344365350844956 15.2952505939253633 10.0542453104394660 Ga
atom 10.9859080489722558 15.3274328583464285 4.9538149821038822 Ga
atom 12.4345114744290619 12.6747758999296085 0.0202064100067666 Ga
atom 12.3967009151822651 12.6276624832573408 10.0998993278632874 Ga
atom 12.4606778481072347 12.6165045990305238 5.1017501322558259 Ga
atom 14.0648685662918016 9.8631849264791303 0.0664714062014057 Ga
atom 14.0314855235780573 9.9411826991683814 10.1591547179451442 Ga
atom 7.8457701239019375 9.8950484280222657 10.1985643933538750 Ga
atom 7.9450584139819975 10.0045418154131251 5.1898835552954372 Ga
atom 9.3512271390708541 7.3877782432585182 15.2183797418356956 Ga
atom 9.5212451611240780 7.1704414522993476 10.1257070317853834 Ga
atom 9.2458653033885696 7.2237635171447474 5.0795612290977177 Ga
atom 10.9492687682406089 4.3794760461818854 0.0812940714985153 Ga
atom 10.9320975890347789 4.4702063032174078 10.0600695600986576 Ga
atom 11.0823130130312801 4.5870325200761668 4.9130583444130131 Ga
atom 12.3930195098372025 1.6602219899795088 15.1507355551231342 Ga
atom 12.4117782677223687 1.8447948150519278 10.2272112826074100 Ga
atom 12.5556368045179223 1.8525673960862949 5.1129823558990362 Ga
atom 12.6619124369747755 7.2455106004502312 5.0912165280489399 Ga
atom 14.1161495200342966 4.3721920593461672 15.1724493967556402 Ga
atom 14.1096691606660194 4.5849736448156504 10.1600981146711753 Ga
atom 14.0375342822554572 4.5939087630431361 5.0270209299491864 Ga
atom 4.5405270765754073 15.2300698880899414 0.0140317662487888 Ga
atom 4.6241511635806534 15.3359590664440031 10.3027825273148146 Ga
atom 7.7929818404519002 9.9467873318508193 15.2420920049005026 Ga
atom 6.2700688047585782 12.6519358162092015 5.1527194262475335 Ga
atom 6.2785209106317144 12.5406180935966951 10.2437694438041689 Ga
atom 6.1216329211352187 12.6490339998932981 0.1442560606677490 Ga
atom 4.7332064926443316 15.2593274164991577 5.1817829787406273 Ga
atom 3.1175926033723464 9.0770682579478521 9.5272958318079262 N
atom 3.1170285365054897 9.1296565247502315 14.7536872871143743 N
atom 1.5979243969797330 11.6582488456063338 4.4005374661502961 N
atom 1.4724314604322146 11.6736202117506114 9.5968825509741400 N
atom 1.4491835840633622 11.8192511825256990 14.5439223756007738 N
atom 0.0621678793230759 14.3240060769202184 4.3472410685133145 N
atom 3.1825117759722583 8.9026406694561597 4.4579748196408735 N
atom 4.6868142574718137 6.3522836505579967 14.6002932808509289 N
atom 4.6669450761127260 6.4116118467735799 9.4495327863644647 N
atom 4.6875014087275604 6.2874919857606288 4.5069601620873625 N
atom 6.2945557109112800 3.4123713042792678 14.6435867802807191 N
atom 6.4554920470073638 3.5423503691345006 9.5893838461284986 N
atom 7.8124791662214763 6.1934347381502866 14.6964667414338965 N
atom 7.8166528942417139 6.3528114731692442 9.6875593615029789 N
atom 7.7437824125721066 6.2670830653518150 4.4380285628186220 N
atom 9.4011973676191349 3.5228086880756440 14.6264708218925623 N
atom 9.3406723960240292 3.6933206835794592 9.4629457745341679 N
atom 9.4670228366900009 3.6121777877137702 4.4531846175782119 N
atom 10.8065928677157519 0.8523078056892157 14.6445183928764777 N
atom 10.9435215413824452 0.8035588293987455 9.5722805846850409 N
atom 11.1192655362369432 0.8446514322255274 4.4159720943604981 N
atom 15.4698788645381562 14.3580730706480431 14.4572946415478381 N
atom 0.0019567928652410 14.3732767870563798 9.4742589554772270 N
atom 3.1167376129816979 3.6205010072324479 9.4929502500698764 N
atom 3.2450219874778279 3.5790247726620854 4.4343945278200501 N
atom 4.4445409684624195 0.7683336263021469 14.6651706649204598 N
atom 4.5738897130340206 0.9843798408912621 9.5717192291193012 N
atom 4.8892497047646373 0.8354204729287753 4.5602635741041748 N
atom 0.0892481367615296 3.5322087153027870 14.7017534809983133 N
atom 0.0563097372476448 3.7303875429882254 9.3813994719666649 N
atom 15.5263202145691714 3.5852154196171750 4.3825795063514468 N
atom 1.4490754248936806 0.8440007319005385 14.5842568991779427 N
atom 1.4405778914668552 1.0259604972804501 9.5054157827963603 N
atom 1.5622438398559002 1.0030257919494461 4.3691801270818438 N
atom 6.4868699964215306 3.5737399495830671 4.4556649916001323 N
atom 7.8041652665427081 0.9245878508374390 14.5529136692162986 N
atom 7.7749050475625898 0.9287178077680183 9.5077988701714222 N
atom 7.9079301390159653 0.9382521188140810 4.5672367783693586 N
atom 0.0655288596994155 9.1266488491975633 14.5459050315103759 N
atom 0.0642786713410590 9.0767245505949035 9.4967972971902128 N
atom 0.0943316539651853 9.0021154650634365 4.5791548476805222 N
atom 1.3901443636455555 6.3537025926780570 14.5867881633033090 N
atom 1.6326741943266312 6.4688026761490631 9.4431652044048544 N
atom 1.7024215603133692 6.2894103220102888 4.4544068859459305 N
atom 3.3005080603633403 3.5889820188469419 14.5719023176633744 N
atom 11.0447893279339038 11.6024158716727666 4.4870558024220122 N
atom 12.4827291208040307 8.9524890307721225 14.4921373129464968 N
atom 12.4436637194244089 9.0903539346891833 9.5364179231260859 N
atom 12.5316815350895823 8.9426155714238504 4.4860394425090515 N
atom 14.0631208050077188 6.3262056487973970 14.5954657305941513 N
atom 13.9918120411443176 6.4089752752354983 9.5607119786037771 N
atom 14.0995278953843091 6.3329258455751702 4.3666064384149861 N
atom 6.1685177324893905 14.4672948615874244 14.6918684382734313 N
atom 6.2905783920734475 14.4132159249765852 9.6154695516439208 N
atom 6.3451511830416694 14.3798691102925247 4.5943446304556295 N
atom 7.7697026222561947 11.8826062333668183 14.5815894508870301 N
atom 7.7318463580785712 11.6889054523246596 9.6186860884202989 N
atom 12.2612216285616569 14.4596639733886327 14.6599319210433041 N
atom 12.4611266378867001 14.4952886684774764 9.3617692518492568 N
atom 12.5832489388372206 14.3547775428272413 4.4643023874527223 N
atom 13.9095266197413885 11.6452912307944612 14.6345717121627601 N
atom 14.0215801197864405 11.6968823738830583 9.4964772022904604 N
atom 14.1781159153227829 11.7019440495864977 4.4517516251061640 N
atom 9.1182656623813632 14.3947827718082966 14.5139349491798608 N
atom 9.3191910353011007 14.4426697222801632 9.5134096867522864 N
atom 9.4252913771621731 14.3465369036102892 4.5220235057006386 N
atom 10.9887348140420453 11.7291158206851396 14.6732547539650202 N
atom 10.8559089896914802 11.7350915342619455 9.5771597247178040 N
atom 14.0074030234540743 0.9525305080056795 9.4147280580560331 N
atom 14.0813551236903596 0.9465634743182081 4.5494044875072932 N
atom 2.9939030935197350 14.4177987439183433 14.6018081507192843 N
atom 3.0512858844613797 14.5403063480358341 9.4943378511964447 N
atom 3.0571298471530919 14.6115321565132508 4.3751327982962733 N
atom 4.6424074344101385 11.6570128305079788 14.7517225634352762 N
atom 4.6201039874255914 11.8048860311660970 9.7118769343819551 N
atom 4.5867364419209178 11.8487002133299342 4.4931263008182611 N
atom 6.3552666596746574 8.9682118478215980 14.7339092856139811 N
atom 6.2889269170474309 9.0465374697397074 9.5599729861968186 N
atom 6.3883480828264618 9.1259696260553866 4.4926137768994403 N
atom 7.8145580185308416 11.7523085683203501 4.4564596397059173 N
atom 9.3223289267092184 9.1316591608977475 14.5526293965712714 N
atom 9.5070581260754867 8.9873148353109951 9.5645018875207413 N
atom 9.3670140177226084 9.0538914216090820 4.5821587391400689 N
atom 10.9102909737736713 6.2217759917693574 14.8127677037914776 N
atom 11.0447120565406927 6.2912810747839378 9.4407465616848860 N
atom 10.8556439618495464 6.4023474248705421 4.4858233475824392 N
atom 12.4360768748304817 3.4469508824980251 14.5634012344219474 N
atom 12.5254390694943485 3.6302874324768815 9.5110003066227922 N
atom 12.5160351155094371 3.5688572151205444 4.3876541392357931 N
atom 14.0083858762364830 0.9327320982674525 14.5889240368055173 N
atom 6.2818073439060429 7.2492309965000645 1.9513042948160133 N
atom 7.8222442408798152 4.4629081156554324 12.0996931647733845 N
atom 7.7183624956855201 4.3779955830226260 6.9466443229330563 N
atom 7.7338061838409544 4.4996242230789889 1.9890162581573654 N
atom 9.2126076391703435 1.7704106308485066 11.9342783560282690 N
atom 9.4618050615422362 1.6661523937880223 6.9315247275882088 N
atom 9.4692044340918944 1.8314053439934355 1.8654333405616705 N
atom 15.5653707354956037 12.5831439995095415 12.0443429493527123 N
atom 0.1479030615434582 12.6334438013395722 6.9408709038510521 N
atom 15.4826501047817278 12.6169520931395702 1.8506402659498125 N
atom 1.5489690586531080 9.9513385918897708 11.9787439922666810 N
atom 1.5651756013336566 9.8885992800386546 7.1311865654767939 N
atom 1.4572797915120244 15.4498749095170123 12.0571035262873352 N
atom 1.5812778079079526 15.3832471144020406 6.8511053081295650 N
atom 1.3328641445193317 15.3342057383300698 1.8875879740638601 N
atom 3.1302233411825644 12.6089809631631802 12.1111880300818235 N
atom 3.1191384176543187 12.7728968276091024 6.9621902475878121 N
atom 2.9910970416317020 12.7506221426715385 2.0075987449643860 N
atom 4.7164089200302639 9.9422318983522899 12.1675355626215396 N
atom 4.7145497056768972 10.0111022531436760 7.0985999036600926 N
atom 4.6144155585233460 9.9631526737621758 2.0754316128469896 N
atom 6.3970776957522864 7.2817430633366431 12.1395258560849086 N
atom 6.3466123724688144 7.1015345083113139 7.0391152926576259 N
atom 15.5439554576007293 7.2266505757188515 6.9735657136855043 N
atom 15.6104372910601068 7.2527434610380777 1.9706167773979193 N
atom 1.4685208373897720 4.4061567796616901 12.0737717733097458 N
atom 1.6119041648687982 4.5766594373150689 6.8828209503146489 N
atom 1.6632656761030795 4.6282503606821566 1.8238808091648417 N
atom 2.9890222510790565 1.7969868309069448 12.1005951956565418 N
atom 3.2119538119821076 1.7280124192389854 7.0661754911833432 N
atom 3.1782372144100406 1.6678435019109337 1.8509372172277574 N
atom 15.4572879856525542 1.8171519511195988 12.0023394038842568 N
atom 15.5837109738253670 1.8851071513653530 6.9992991088041840 N
atom 15.5487533494831141 1.8782820564925764 1.8090610035980861 N
atom 1.6195562337480116 10.0698393028477682 1.8941144711287137 N
atom 3.1729011492151447 7.4660226511582390 11.8849111487661752 N
atom 3.1678467871153697 7.4207640746848966 7.0863968467508069 N
atom 3.1412818280020764 7.3844801522497781 2.0390945629081871 N
atom 4.6949244149948282 4.7553802840359172 12.1091225526846458 N
atom 4.7387703996207122 4.4661688133432413 7.0037722933183471 N
atom 4.8290144381014857 4.5073609268435071 2.0499322144913994 N
atom 5.9805968945302697 1.8528683285428671 12.2713109985771798 N
atom 6.2644791811503522 1.7847964612847762 6.9495734749895153 N
atom 6.2971599389310668 1.6626848772984766 1.8183787765900485 N
atom 0.0708598635427703 7.1569339819853148 12.0848201477162860 N
atom 14.0723409257730232 9.8517864708133587 2.0222669737525174 N
atom 7.7528570315781868 15.3753339398020810 12.1057725113462116 N
atom 7.9031947401620775 15.1914989445121389 7.0868892631829246 N
atom 7.8065014528245857 15.1943765288060142 2.0153430435265185 N
atom 9.4005944191044044 12.6596858627040305 12.0515506263919630 N
atom 9.2825037773979773 12.7176283301486528 7.1543489062101342 N
atom 9.4732607504456272 12.6937180922521176 1.9369874694657900 N
atom 10.9841228683241603 10.0593218398999280 12.0187925981280959 N
atom 11.0331191668519182 10.0426091422909725 7.0296630568019571 N
atom 11.0808278659673167 9.8436426226773843 1.8612489198890507 N
atom 12.4796650713137662 7.1937624480459350 11.9988616130817221 N
atom 12.4945835654393491 7.1789388020364200 6.9729561553759423 N
atom 13.9036268372132046 15.3355486428309469 11.9905697000143601 N
atom 14.0654951706157814 15.2955367526257575 6.9786126375984043 N
atom 14.0880530873438197 15.2783797125525727 1.9083311936047138 N
atom 10.8777314391711357 15.2631422674853798 12.0182594178853570 N
atom 11.1175497524772240 15.2659175709363009 6.9503409996896730 N
atom 10.7894326644387135 15.3333827640139937 1.9106326873106414 N
atom 12.6614132214579573 12.6375531313790646 12.0374312913720019 N
atom 12.5292989022232746 12.4986292798495953 6.9845108812461838 N
atom 12.4920059174144402 12.6730364187438749 1.8740647197308122 N
atom 14.0339001057105275 9.8528676613259147 12.0971149869294603 N
atom 14.1928134014373608 9.8641104888802271 7.0206800492407568 N
atom 8.0184914266759293 9.9894631187685459 7.0745523938571226 N
atom 8.0346230265742005 9.9829055143900938 1.8236114158342898 N
atom 9.3603843200235364 7.1448378577216456 12.1932567538197478 N
atom 9.2967751905204707 7.1149751370590142 7.0408252506544970 N
atom 9.5158943343670241 7.0894433474126703 1.8540157490335736 N
atom 10.9656523493008873 4.4748225443593901 12.0343632867995964 N
atom 10.8832471048620114 4.4113848082842821 6.8415904161217691 N
atom 11.0745497014916197 4.4065548197972673 1.9921722471901993 N
atom 12.4001942010407973 1.8540783094689886 12.1074938225326605 N
atom 12.5665014760445430 1.9523640331146739 6.9951140090020063 N
atom 12.3737676823599561 1.7443659370593494 1.7314879078802785 N
atom 12.5278069249979715 7.2272405337933447 1.9070009139944979 N
atom 13.9751873112769829 4.5247323699137629 12.0377845290726864 N
atom 13.9947273951970725 4.5921303665413902 6.8614155542775519 N
atom 14.2069651030395985 4.4785855125189782 1.8753467500500289 N
atom 4.5451131132851934 15.3775897284006540 12.1395265552653520 N
atom 4.9177929658549022 15.3413228058368105 6.9936688577366333 N
atom 4.6604720428705075 15.3036204452287627 1.9783856385502119 N
atom 6.2029717534071533 12.6615154666180274 12.1411587881901379 N
atom 6.2578455891240550 12.4925991245385504 7.0749297985775872 N
atom 6.2620051897175300 12.6471814873661597 2.0213692853230181 N
atom 7.8884009548924743 9.9992736447058519 12.0844347480807333 N
