#===============================================================================
# Created using the Atomic Simulation Environment (ASE)

# Thu May 11 08:59:13 2023

#=======================================================
lattice_vector 15.6273739999999997 0.0000000000000000 0.0000000000000000 
lattice_vector 0.0000000000000000 16.2404434541285205 0.0000000000000000 
lattice_vector 0.0000000000000000 0.0000000000000000 15.2445761999999903 
atom 15.5118560380026373 14.4655791583870457 2.4947115511442712 Ga
atom 1.4820519328917365 11.5734436366945559 12.8106766695142724 Ga
atom 1.6510424429421446 11.6531741396668096 7.6647623964160410 Ga
atom 1.4946887447324908 11.6712559378280964 2.5273427890457252 Ga
atom 3.1094273058240991 8.9675233262334988 12.7617104544091866 Ga
atom 3.1149408108167362 9.0706927454298736 7.6911216711122758 Ga
atom 3.0740621385753437 8.9572564936653585 2.5335438381721067 Ga
atom 4.5784061638618754 6.2447887049118895 12.7104886001098549 Ga
atom 4.7685463509477062 6.3480486995093317 7.7437496042687020 Ga
atom 4.7530452506312475 6.3678240846847967 2.4631515052624127 Ga
atom 6.2100328018727309 3.6009330789934881 12.6321244605979999 Ga
atom 6.2657174912365896 3.6804488448002748 7.7008743747697546 Ga
atom 7.7442498677288025 6.4199810068981629 12.6134691005092403 Ga
atom 7.9439214084088183 6.1788327363400448 7.6050412722420120 Ga
atom 7.7198720262131770 6.2273995796609309 2.4256358669621689 Ga
atom 9.2194032177687113 3.5845464577102781 12.6276774940854217 Ga
atom 9.5249217275288895 3.6287515527626182 7.6399773385190306 Ga
atom 9.2437897400360249 3.6036966529299650 2.5233411802018826 Ga
atom 10.9616502916497538 0.9011798260874897 12.6607794301214636 Ga
atom 10.9261856700704136 1.0103191930423407 7.6099875967284074 Ga
atom 10.9579656375413172 0.9402189495479135 2.5910862877408238 Ga
atom 15.5921225422212757 14.5543937359733633 12.7131221026802024 Ga
atom 15.6237586614700898 14.6421015618908008 7.5718831483607607 Ga
atom 3.1712716721966907 3.6315315510379627 7.6681352388143420 Ga
atom 3.1695548984820534 3.6664570049271417 2.5919142824902397 Ga
atom 4.6857846863225925 0.9705116096921439 12.7690340172476535 Ga
atom 4.7692135443862904 0.8821582391105277 7.5086450398905384 Ga
atom 4.6794903096701503 0.7108659152883996 2.5270193017832376 Ga
atom 0.0391418733368571 3.6209797455199326 12.7646986598312537 Ga
atom 0.0139520524307602 3.5932679306548225 7.5820916041722919 Ga
atom 15.5760617064157962 3.6643135505515345 2.6181928808103216 Ga
atom 1.5969040195449686 1.0637496367127004 12.7048934703947083 Ga
atom 1.6516675677679316 0.9339845064923289 7.6037294161701414 Ga
atom 1.5767940946156973 1.0388471080689883 2.5435305855203589 Ga
atom 6.3298632050989090 3.4932896463958563 2.5702911844056544 Ga
atom 7.8127015191688240 0.7737416454150698 12.6602233356836731 Ga
atom 7.8962690551304240 0.9483323555080808 7.4951456601398032 Ga
atom 7.8473226614408853 0.8056968814790226 2.5505928348219609 Ga
atom 15.4164908936639460 8.9348501005803556 12.7447068856533789 Ga
atom 0.0365726521617815 9.0608087468506966 7.6058838585274851 Ga
atom 15.5434004760959308 9.0425599054989547 2.5477616223599702 Ga
atom 1.4713758693930488 6.3093340954069124 12.7166880043408259 Ga
atom 1.6189049049827575 6.2407876981540662 7.6130072474222654 Ga
atom 1.5259378539516684 6.3081160832091090 2.6180604430597452 Ga
atom 3.0431424011085535 3.5567844146678338 12.6079146575131986 Ga
atom 10.8741723527886851 11.7095322888559643 2.4167722245187475 Ga
atom 12.4910870349912031 8.9496650844312047 12.7710323957679979 Ga
atom 12.5007286770949495 8.9886537398921540 7.7396018003208260 Ga
atom 12.4529733295864933 9.1678569788805717 2.6634923306906915 Ga
atom 14.0903149749856489 6.2271425325663925 12.6977772506536706 Ga
atom 14.1412144937029218 6.3005624939297364 7.6075812931248246 Ga
atom 13.9215555138762781 6.4128215035920952 2.5838364740066444 Ga
atom 6.2371965745704188 14.4260067744482772 12.7254216224403347 Ga
atom 6.2159393436141341 14.3971445856466254 7.7277353354911753 Ga
atom 6.2818232197793558 14.3181402812631831 2.6187181926220697 Ga
atom 7.8496806442397169 11.7322037826017436 12.6659870326079407 Ga
atom 7.9122251165563524 11.7374606583030872 7.5682959395344982 Ga
atom 12.4464978886846147 14.5492462426508222 12.8211440224947442 Ga
atom 12.4960874596071783 14.5734276651523889 7.5723945198627947 Ga
atom 12.4966485326493899 14.3490831053196484 2.5139545026012970 Ga
atom 14.0296171939391794 11.8089945608258660 12.6742293011377285 Ga
atom 14.0035284839180267 11.8479604803635041 7.7480250011254377 Ga
atom 14.1328740373400059 11.8453174022442500 2.6433589093241161 Ga
atom 9.4630846468885625 14.3744160924507192 12.6847843187405616 Ga
atom 9.4146696867601793 14.4327716498697605 7.5766783330172656 Ga
atom 9.5056336500116689 14.4490007416131530 2.5822660777316098 Ga
atom 10.9831803948165074 11.5310624527375367 12.6580984532429959 Ga
atom 11.0214727827425865 11.7751161169830354 7.5442301274343633 Ga
atom 14.0281149464722876 0.9531209136450325 7.6048126273151508 Ga
atom 14.0860497341487445 1.1372901609624011 2.6039995081903951 Ga
atom 3.1094517869154368 14.3695912898744531 12.8020909631797277 Ga
atom 3.0629688334669529 14.4035381548390493 7.7038668690967720 Ga
atom 3.0112474405785616 14.3083078239439043 2.6491864037408925 Ga
atom 4.7254945139476368 11.7102495140173861 12.8006047286223872 Ga
atom 4.7151568426882271 11.6085530202520903 7.6621006492040786 Ga
atom 4.6838020353321372 11.7105909954254344 2.4260418169719871 Ga
atom 6.2279285829122841 9.0008995042025415 12.7890307220609785 Ga
atom 6.3495824210617835 9.0871965541929818 7.4323503122166716 Ga
atom 6.2808360467498625 9.1459773650515448 2.4610428280063972 Ga
atom 7.8496309629926495 11.6239491339322996 2.5049766611929680 Ga
atom 9.3985287106645732 8.9772846446853638 12.6155021894147392 Ga
atom 9.3878759208498952 8.9674910396488787 7.6413468063985901 Ga
atom 9.4389420884862645 9.0009081282072110 2.5608227096584977 Ga
atom 11.0237175263668945 6.2155426143899097 12.6062631503289335 Ga
atom 11.0708271457166809 6.2653007465333586 7.7317133226358328 Ga
atom 10.9286593800137553 6.4023153803294326 2.4324727559871122 Ga
atom 12.4726665117204316 3.6273258265500470 12.6041787340404490 Ga
atom 12.6005797873721654 3.5144395357484233 7.7152607417341939 Ga
atom 12.4628596135701262 3.7305711964025794 2.4639623184202932 Ga
atom 14.1202965057029637 1.1000172272500428 12.6803870248161878 Ga
atom 6.3008122968379805 7.1759040745006768 4.9827983006129362 Ga
atom 7.8227772559370008 4.6091909413704863 15.0870828832584465 Ga
atom 7.8253779310339269 4.5067818699170665 10.1417427531235447 Ga
atom 7.8802864895255116 4.5326819855406839 5.1019174795572182 Ga
atom 9.3048505480886412 1.7260724262629730 15.2351827028884017 Ga
atom 9.2505350832395496 1.8339271292456831 10.1584009780141358 Ga
atom 9.2779875204475442 1.8627942747833377 5.0825034383120524 Ga
atom 0.0539668452950583 12.5957443661828563 15.1915282199143657 Ga
atom 0.0437619827958584 12.5663894022531881 10.2991104786238132 Ga
atom 0.0399092582753556 12.6979736232530911 5.2591150514517295 Ga
atom 1.5691353022665084 9.8900971041303016 0.1511430885830592 Ga
atom 1.5605750171289186 9.8813773345609341 10.1677736893956308 Ga
atom 1.5750069780120977 15.3024147473803396 0.0058912972081472 Ga
atom 1.5442985010102195 15.4781775667349581 10.2151347154166103 Ga
atom 1.5389707315686809 15.5138061817642079 5.0547934368043403 Ga
atom 3.1131891831620222 12.6306306694664290 0.0915754093121403 Ga
atom 3.2011689481277399 12.7038545110579228 10.1629760311494657 Ga
atom 3.0849025912557786 12.4843156478853832 5.1659054066310235 Ga
atom 4.6192497579056857 10.0036798269356861 15.2002301098713506 Ga
atom 4.6563313073453809 9.8318473468698411 10.1796527194810817 Ga
atom 4.7359806623867113 9.8843160544136008 4.9450481453474957 Ga
atom 6.1691751199770746 7.3348202920037711 15.2352684233913003 Ga
atom 6.2900231272359202 7.1592052898402434 10.1184995023537248 Ga
atom 15.6254555511751825 7.2985396490353418 10.1159833704735256 Ga
atom 15.6090174815014429 7.2435264949101690 5.0978679226766976 Ga
atom 1.5504852231004185 4.5398979419016108 0.0335993768579009 Ga
atom 1.4648662784422424 4.4229407481543488 10.2145059737788735 Ga
atom 1.5513675869321026 4.4872893164655148 5.0821441084547683 Ga
atom 3.2414142533068682 1.9653303327183809 0.0685028905859894 Ga
atom 3.0578321506167487 1.8085027633265811 10.0796876332955225 Ga
atom 3.1788646087966970 1.8576856428444073 5.0441494485601472 Ga
atom 0.0282653701570735 1.7276888657420526 15.2398352249811442 Ga
atom 15.6192997652711529 1.8743392229794955 10.1510698295126627 Ga
atom 15.5457857060958382 1.8728208701171358 5.0771007157919907 Ga
atom 1.6210121109412843 9.7986681405863809 5.0828160623633236 Ga
atom 3.0733725197130175 7.2355355206362040 15.2133201431594092 Ga
atom 3.0232475159370682 7.2117476498116435 10.3142139524555319 Ga
atom 3.1994301869272945 7.1272725802043739 5.1237527521750250 Ga
atom 4.8904750324661830 4.4645765703725644 0.0719830869658798 Ga
atom 4.6556096435029772 4.4518396447769071 10.1795974062106520 Ga
atom 4.7264368458070516 4.5677939193506463 5.1087995847785903 Ga
atom 6.3762666420392140 1.8688920042102777 15.1813788136711718 Ga
atom 6.1939361624590017 1.6602976717752853 10.2071311837859326 Ga
atom 6.3330788965528901 1.7862226004822424 5.0526392738773351 Ga
atom 15.6053478680594413 7.2086323000620327 0.0839428506791002 Ga
atom 14.0206722015413057 10.0454227760961352 5.0904570452729576 Ga
atom 7.8031971292243609 15.2437432180425549 15.2281070052209309 Ga
atom 7.9701761301419518 15.2349337248054262 10.1381599052703582 Ga
atom 7.9383170378939401 15.2405587251049806 5.0756389139183069 Ga
atom 9.4976775719790698 12.6604830387727976 15.1594728605014630 Ga
atom 9.2579587951204161 12.5303581600420184 10.1069889473204473 Ga
atom 9.2830729861984587 12.5274189709537289 4.9548138735620206 Ga
atom 10.9068013233902263 9.8812501205312078 0.0588413667173561 Ga
atom 10.9975306182311474 9.8909524134109539 10.0275648600260467 Ga
atom 10.9141127144263859 9.9450289867954513 5.1461654729364277 Ga
atom 12.4483769963740993 7.2869711920961846 15.2205033100794171 Ga
atom 12.5483660646273520 7.1558137045508010 10.1760528736348714 Ga
atom 14.0747937152312410 15.3032080949540870 15.2419544162818781 Ga
atom 13.9715920438275347 15.4076090792375506 10.1122550908293096 Ga
atom 14.0991343615336202 15.4067669281897643 5.0787149971450196 Ga
atom 10.8690748915976947 15.3889893693862359 0.1804668446712799 Ga
atom 10.8338910435780473 15.4277513096780901 10.1075392405934590 Ga
atom 10.9728599773431714 15.3019930395078223 5.1192203720767724 Ga
atom 12.5008745042026561 12.7390116045796766 15.1969970285428708 Ga
atom 12.4304918592033626 12.6881701647519023 10.1969745759784161 Ga
atom 12.4676326471141774 12.7373722170041770 5.0261627724688092 Ga
atom 14.0902838212118926 10.1058128332228971 15.2428552564307029 Ga
atom 14.0198209861936665 9.9068392301766792 10.1887616874103895 Ga
atom 7.7310312571793700 9.8885070512282489 10.1850417313654518 Ga
atom 7.7546251769044918 10.0042245142618285 5.0788820022020174 Ga
atom 9.4202588323909495 7.1710191150689795 15.1250838487745902 Ga
atom 9.3375155757305262 7.2430518720304704 9.9832842845825773 Ga
atom 9.4620633765362765 7.2592953475094557 5.0337458724997806 Ga
atom 10.9078782475597009 4.4654673829529123 0.0308906387213789 Ga
atom 10.9313052550802645 4.4378273025133863 10.2692470969447260 Ga
atom 10.9725737762459961 4.4549555343504137 5.0604219321653314 Ga
atom 12.5056780606754128 1.6910482121535009 15.1946859879125604 Ga
atom 12.5241416392082385 1.7223762836920433 10.0618828037991417 Ga
atom 12.3594876853609623 1.8046758937976652 5.0729105568518875 Ga
atom 12.6023904000294937 7.1401643025485750 4.9850290399370234 Ga
atom 14.0567870515751547 4.5996955548713414 15.2444306140538242 Ga
atom 14.0433804782467480 4.4484572573184824 10.1060971901290042 Ga
atom 13.8435505759628406 4.4086196608831827 5.2291142383664555 Ga
atom 4.6888859291634768 15.2614594248327133 0.0478278130897206 Ga
atom 4.6866641014818038 15.3171107851886514 10.2312103414536431 Ga
atom 8.0529647743857726 9.9421803391648904 15.1279234793170172 Ga
atom 6.1673203750962724 12.6442240009382427 4.9636311018082004 Ga
atom 6.2863988620439972 12.5896961432790775 10.1774726789461933 Ga
atom 6.2452866822624484 12.6989435659448731 0.0001674920731873 Ga
atom 4.8347451299346407 15.2962558534479633 5.1612713844626237 Ga
atom 3.0486121531633037 8.9948728093424997 9.4958184079510168 N
atom 3.1793871777135414 9.0148587202967381 14.7410595794454338 N
atom 1.5110894918397320 11.5001007725719315 4.5163540017413784 N
atom 1.5811066909810496 11.6345943457240679 9.5602948319396539 N
atom 1.5828864191311542 11.6855676353576854 14.6800709547170722 N
atom 15.5990403257464951 14.4930310224142360 4.4724560708999590 N
atom 3.1476522971994285 8.9756123810973527 4.4411255425969438 N
atom 4.7494672149896902 6.2665403875988197 14.6143398997881686 N
atom 4.5544860027372511 6.3757896128429161 9.6466293875722435 N
atom 4.7660732029245709 6.3607558167979139 4.4494600641842030 N
atom 6.3891341233513286 3.6372864915051335 14.5812605162125966 N
atom 6.2299206214207006 3.5834597012079796 9.5553607064846382 N
atom 7.7783202277671144 6.4091996166203371 14.6110153897647237 N
atom 7.8556883669755706 6.2202579516125134 9.4642480785105416 N
atom 7.8410075076100894 6.2766226951835478 4.2458448830495925 N
atom 9.3287436845530252 3.5047181938562018 14.5411609655951661 N
atom 9.3375487993055852 3.7514883074453169 9.5518757867836470 N
atom 9.3684152671840994 3.5892015786437637 4.3513791758387290 N
atom 10.8300502951503059 0.8248024763315029 14.5451498254718885 N
atom 10.8336386606334436 1.0055220661500601 9.4050911641165111 N
atom 10.8278334443257762 0.8824256253764478 4.5070341071000062 N
atom 0.0788394091633687 14.4321920578023555 14.6620500875443227 N
atom 15.5610229698130471 14.5634044756156307 9.6186193781019487 N
atom 3.0163773155498737 3.6193103139717944 9.5780432938124491 N
atom 3.1852683638288788 3.6731194959994791 4.5186851413446014 N
atom 4.7520654695029618 0.8159075626444100 14.6639461040047721 N
atom 4.5662553128551622 0.7946195549096631 9.4668413698530731 N
atom 4.7800250137276876 0.7985554944816603 4.5411757446542582 N
atom 15.5441941968395536 3.6234570765252778 14.6921102611278336 N
atom 15.5005876958210411 3.6033937568813261 9.4965080685003791 N
atom 15.5266902522637693 3.8232471325847626 4.5864979346736634 N
atom 1.5877271844007799 0.9442594322433183 14.7421178498535408 N
atom 1.5292277421769418 0.9769763396247697 9.4906432620442889 N
atom 1.4687990620072484 1.0280750924609583 4.3534533706692082 N
atom 6.3190791801685471 3.5891846406363976 4.5241091819940493 N
atom 7.7785078756335624 0.9383876346559402 14.5516002810828144 N
atom 7.7610087193926898 0.9323069818915886 9.4577024593319550 N
atom 7.8504273437362979 0.7809465462485624 4.4135925612774338 N
atom 15.6217144068770324 9.1132401013473903 14.7341052023062513 N
atom 15.5549621166486496 9.0244402415975067 9.4784884804402623 N
atom 15.5510438153621280 9.1070831355007638 4.4349405508297890 N
atom 1.4655011924863881 6.2335064941266163 14.5291071120463453 N
atom 1.5432365805318737 6.2047397511416387 9.5366416860691903 N
atom 1.5846431280846578 6.3230456311692178 4.4881838473342004 N
atom 3.2126695726668091 3.6699432527246767 14.5521133504397664 N
atom 10.9763551030594826 11.7019571749717670 4.4157986936225084 N
atom 12.5827327723890861 9.1770686893429190 14.6916355520062183 N
atom 12.5696498569055191 8.8620890473802696 9.5924680933337143 N
atom 12.4435183526722586 9.0237267785375703 4.5135194822031943 N
atom 14.0867882797499249 6.3650776096762316 14.5490705907408771 N
atom 14.1023778627821130 6.2418606366736720 9.4350076555796143 N
atom 14.0240064835240030 6.3707809487639802 4.4603840846136018 N
atom 6.2361823143486879 14.4967261294488559 14.4392100735696296 N
atom 6.2003779435914330 14.3881224479716536 9.6480079984752543 N
atom 6.3415580642539435 14.3920875014101792 4.4198989638225958 N
atom 7.9017445793464152 11.7782882252286729 14.4739304061815837 N
atom 7.8982522238742199 11.7298808587326420 9.4536317259435503 N
atom 12.5290410108915626 14.5704621462639921 14.6265791726419856 N
atom 12.3953842127534681 14.5656085731764904 9.5483175607160717 N
atom 12.5790796356462025 14.6175581807076167 4.5312223184916522 N
atom 14.1763069705603897 11.6948358766609299 14.4145302423397617 N
atom 14.0670649999851740 11.8188909406124303 9.6250271868094242 N
atom 14.0177387762754861 11.8508357230053285 4.5687144056717441 N
atom 9.3132054669189035 14.4851705212940693 14.6256600289755152 N
atom 9.4551820907217810 14.2887213131409059 9.4129582371120417 N
atom 9.4276419524900881 14.3706276921261509 4.4837261380274667 N
atom 11.1602640251044036 11.7053074251309770 14.6741944661126542 N
atom 10.9163704449140351 11.6988618834377132 9.4857051793047731 N
atom 14.1150614262992686 0.9466742749630822 9.4761578440887018 N
atom 14.0119290032587216 0.8949126639870137 4.4597431730640604 N
atom 3.1538041375243870 14.5260506770030968 14.7176350062474199 N
atom 3.1000764700996308 14.4364247077664611 9.5978301277888800 N
atom 3.0287670152540707 14.2885551503698984 4.5398365096143998 N
atom 4.7081124566518566 11.8780906067250456 14.6699288586024483 N
atom 4.7293893637956463 11.7025786107794900 9.6575836210947390 N
atom 4.6106676257145578 11.7595149078935908 4.3118047510281814 N
atom 6.2045117022671548 9.2044828618824326 14.7143237291044020 N
atom 6.2928487278538139 9.0109737949874482 9.3923739389660366 N
atom 6.3439294799987254 9.0084121276791826 4.3475329208605675 N
atom 7.7816944690348295 11.7702462473827598 4.3342231080210052 N
atom 9.4986429380170474 9.0452663541130995 14.5495553474154029 N
atom 9.3693171902939660 9.0502292726164786 9.4624131868235608 N
atom 9.3097688740319864 9.0046589469048559 4.4480932052457129 N
atom 10.9790607306095751 6.3320025710299799 14.5714414760133462 N
atom 10.9610064279601040 6.2512919286427406 9.5217991638193151 N
atom 10.9995388453685123 6.3017936021658407 4.4597816462877757 N
atom 12.4950057248955115 3.5418783295385046 14.5810716033620391 N
atom 12.4485035024074691 3.4969246174535993 9.5919811856010089 N
atom 12.4948085740321559 3.4550599014928132 4.3093053293973451 N
atom 14.0378822058426689 0.9515187465247468 14.6098665601238551 N
atom 6.2301695122188647 7.3853635065856018 1.8605944723237309 N
atom 7.6865850302050127 4.5868178556332930 12.0815172976798646 N
atom 7.8872404241441112 4.4129057324952408 6.9337514589718960 N
atom 7.7367607994263263 4.4235155656585396 1.8257693614176533 N
atom 9.2611375654410697 1.8251818492755978 11.9771435019576220 N
atom 9.3959877662127536 1.9580934790715898 7.0679966141630111 N
atom 9.3664567859275252 1.7214960212867132 1.8650437716973400 N
atom 0.0158504970546495 12.6885102125344797 12.1302999212148510 N
atom 0.0620391634493156 12.7827331695843132 7.1661304609624912 N
atom 15.5563365583334754 12.6712706159497088 1.9338804397027425 N
atom 1.4139096370668294 9.7608128195797690 12.1365706713565480 N
atom 1.5814185040858948 9.9529593712518842 6.9911216602785586 N
atom 1.5164533237979141 15.5065248529906636 12.1034939944812425 N
atom 1.5331985733592162 15.3426582847174533 6.9085095501090086 N
atom 1.4683769141387835 15.3927250357709244 1.8950171428042184 N
atom 3.0770240422900641 12.5833140179721372 12.1947020157459569 N
atom 3.1827650117578270 12.6293969264507719 7.0435615122850601 N
atom 2.9377248846360731 12.5368076627440352 1.9719172018793363 N
atom 4.7505913482241136 9.9125947217923684 12.1165750132477186 N
atom 4.7094205089758097 9.8999694426958484 6.9534040555381793 N
atom 4.6726176569219726 9.8473419716297599 1.8512039889038736 N
atom 6.1168891862660768 7.2547252877798538 12.0965484750425354 N
atom 6.2800059049549741 7.1780972906768019 6.8835361254380159 N
atom 15.5765145750913057 7.1594527937364436 6.9132870069277317 N
atom 0.1384101787034792 7.3227245263238965 2.0011339753958279 N
atom 1.6714759937040480 4.5290472515430702 12.1790840703844925 N
atom 1.5501294292768339 4.4005302841153870 6.9856573879915507 N
atom 1.6019989813800239 4.5449679737232778 2.0143712930070987 N
atom 3.1448203947743649 1.7880266116899282 12.0083104315029683 N
atom 3.1972803546884414 1.8226494918201199 7.0429134354474954 N
atom 3.2035310372278714 1.8851694731932098 2.0115998644231849 N
atom 0.1419461564755902 1.8848226039462623 12.0284404979859030 N
atom 0.0885828613011862 1.8055973800530591 7.0378332300208228 N
atom 0.0522323660193111 1.8270833339267945 1.8549146135626136 N
atom 1.6222441004559389 10.0070044430837797 2.0305349055080013 N
atom 3.0798784073749963 7.1221670381722157 12.1583597608606500 N
atom 3.2040183051370366 7.1233140900391625 7.0805817121555998 N
atom 3.0004521456480164 7.3212083685310798 2.0413384822394831 N
atom 4.6408626194699787 4.4909640380065108 12.0980438000774058 N
atom 4.6560017328756365 4.5523926670033044 6.9689800703106259 N
atom 4.8731368760953018 4.5495574197628015 1.9461234870157553 N
atom 6.2150834315625358 1.7867986840395982 12.0831133323468762 N
atom 6.1711185591424655 1.8315687110304042 6.9655073923191217 N
atom 6.3285517371079463 1.6292183586545808 1.9787450761973218 N
atom 15.5418105944237706 7.1733346283443176 12.0403681581624138 N
atom 14.0098402104506725 10.0656695261307636 2.0196138947809810 N
atom 7.8395232278949196 15.1337068744772498 12.0860348572700502 N
atom 7.7959231104553748 15.4093582305161654 6.9098479637380201 N
atom 7.7507503388171521 15.2564160972157428 1.9675394823952417 N
atom 9.4252213954565160 12.5054496610898926 12.0223997730239898 N
atom 9.4855395530534334 12.7427724301476299 6.8605148583408937 N
atom 9.2538202799622802 12.6158176034920970 1.8908263290476730 N
atom 11.0567989316334820 9.7997059852364767 11.9875334023545772 N
atom 10.9477537054009595 9.8800470172006509 7.1444895969864604 N
atom 10.9651725993945863 10.0214765830362005 1.9856803348258285 N
atom 12.3338772499457434 7.1396728996745296 12.1106027419155033 N
atom 12.5380695844350853 7.1856747636663298 6.9881100048984344 N
atom 13.9500674600778449 15.3906504561449911 12.0624842952520606 N
atom 14.0233635646827306 15.3688335418669784 6.9840450065726456 N
atom 13.9509444796562594 15.5317910045486123 1.9326380846231714 N
atom 10.8886121864115850 15.3044607229618599 11.9416508864929920 N
atom 11.0000747646628270 15.5078505594724003 6.9979053671344245 N
atom 10.8977093860227949 15.3717302513265537 2.0239513182586650 N
atom 12.4044767731963343 12.7599183365433912 12.0257926481261173 N
atom 12.4716038128944700 12.7666870401238786 6.9363736222613577 N
atom 12.5647251257099164 12.6942820618889289 1.9019205226221079 N
atom 14.0098856776864817 9.9102890957902776 11.9921978337335808 N
atom 13.9014666432385496 10.0166999296277766 6.8899462470707320 N
atom 7.8826908337899049 9.8868132343083417 6.8883706503943625 N
atom 7.9171803913978680 9.8890804996448676 1.8874405961363603 N
atom 9.4304314509017146 7.1470265448843788 11.9838265285381365 N
atom 9.4696127142908679 7.1848381435700173 6.9847064099432554 N
atom 9.2634840162696079 7.1476105441782520 1.8306313313377405 N
atom 10.9024018628725248 4.4028237060285305 12.1252852560232611 N
atom 11.0525508693094974 4.4966267055626759 6.9007621839675481 N
atom 10.9419412917074172 4.5513691274702754 1.9199229037165511 N
atom 12.4594024527594556 1.7730965429075685 12.0648601745763848 N
atom 12.5304859777345996 1.7776541283090290 7.0462657069076631 N
atom 12.4534782171380911 1.7938285611790667 1.8891857995273960 N
atom 12.5048049962172030 7.3670195827953204 1.9029687609285955 N
atom 14.0116898438809159 4.4714150361828686 11.9878599102848664 N
atom 14.0232346463011766 4.4100694084397691 7.1555122181339064 N
atom 13.9583382830337950 4.5671755968625671 1.8902803464439890 N
atom 4.7768979293242619 15.3699503127735895 12.0788176582791671 N
atom 4.7228260348236848 15.1534604053821571 7.0124558179432173 N
atom 4.5701838960172285 15.1493699379580491 2.0413771946614223 N
atom 6.2188054709562168 12.5993728175938280 12.1488593722158082 N
atom 6.1927083657667605 12.5256407433850754 6.9922310932869109 N
atom 6.3267770740735489 12.6019121752732115 1.9004761148806024 N
atom 7.8367865725674015 10.0327449273943490 12.0510236696668134 N
