#===============================================================================
# Created using the Atomic Simulation Environment (ASE)

# Thu May 11 09:00:44 2023

#=======================================================
lattice_vector 16.5841519999999996 0.0000000000000000 0.0000000000000000 
lattice_vector 0.0000000000000000 17.2347563186669994 0.0000000000000000 
lattice_vector 0.0000000000000000 0.0000000000000000 16.1779175999999900 
atom 0.0973266885211035 15.1867933602056002 2.7150752191792882 Ga
atom 1.6167202493687647 12.5722509524864865 13.5201156984645223 Ga
atom 1.8392765298935840 12.4118113670641517 8.0417310202971972 Ga
atom 1.7356197898787127 12.3306476601119339 2.6946594870640306 Ga
atom 3.4187609672354338 9.6779075870771507 13.6024946701266760 Ga
atom 3.4856290199373210 9.6402715667541479 8.2635013843675509 Ga
atom 3.1818326565542501 9.6529847116040006 2.7604787446582000 Ga
atom 4.8986741653109700 6.7781560153675606 13.5296644123263210 Ga
atom 4.9173762439419608 6.6584217979668523 8.1695072761494014 Ga
atom 5.0459214947230997 6.7478822657910937 2.6670458731347177 Ga
atom 6.4839331209997422 3.9387813279165411 13.5274366209656076 Ga
atom 6.5405257031554784 3.9427130390069092 8.1297694766522959 Ga
atom 8.1736202127750719 6.7413860767393254 13.5798340037627057 Ga
atom 8.1422522348600950 6.6321445998695054 8.1274398801010932 Ga
atom 8.4777384963514812 6.8357270711234310 2.7473856236995968 Ga
atom 9.8297321419961623 3.8307999289508330 13.4303389412701382 Ga
atom 9.8855411010270782 3.8147796165639316 8.2393666157425738 Ga
atom 10.0004326072303300 3.6782254743519451 2.9059920904543302 Ga
atom 11.5540624488612771 1.0209195702890179 13.5241154599809690 Ga
atom 11.6827148064880628 1.0374709503904096 8.0199639529308229 Ga
atom 11.7029091830366134 0.9595380171178243 2.5264976844221851 Ga
atom 16.4857200726855666 15.3567330853212543 13.3983018605474022 Ga
atom 16.5771583994020375 15.3234393289884725 8.0596042459371233 Ga
atom 3.2176974023419604 3.9065455904263913 8.1337328902003829 Ga
atom 3.5075720435817184 3.7831039279205076 2.5990059376791210 Ga
atom 4.8714417496344486 0.9463647592040192 13.4645881236436402 Ga
atom 4.9963272193844697 1.1031460904047743 8.0407835922670099 Ga
atom 4.9804065712384737 0.8440152026506338 2.6847213864112227 Ga
atom 16.4394448517971448 3.8057819409217806 13.3955915664740974 Ga
atom 16.5236855859624683 3.8643675239396544 8.1362310292907889 Ga
atom 16.5728613227103700 3.8321963862603607 2.8548776563351490 Ga
atom 1.6918818158053506 0.8337826366626808 13.2953752660087900 Ga
atom 1.6452053662552524 0.8347646690325488 7.9094169881394292 Ga
atom 1.7034991138811242 0.9981428613921297 2.8064489537156452 Ga
atom 6.6666498192836334 3.7589701054195310 2.7141514345568680 Ga
atom 8.2492500920385208 1.1099729580793669 13.5125216543110458 Ga
atom 8.2610179827400341 0.8876827758526985 8.0865114609262374 Ga
atom 8.1980341422242660 0.8792850534384616 2.7798258511487992 Ga
atom 0.1024677606165251 9.5682622772976984 13.5201541420855431 Ga
atom 0.1450651041372223 9.5854450639318181 8.1440295128330238 Ga
atom 16.4658647474031419 9.5712370865604885 2.6816977916055724 Ga
atom 1.6201806993307428 6.7263430423131156 13.5840119082384199 Ga
atom 1.7473377331113493 6.6891340160712405 8.1802015186311525 Ga
atom 1.5869306388266389 6.7891759033451144 2.7110706538380969 Ga
atom 3.2638639104796048 3.8246070764053268 13.3480044827054716 Ga
atom 11.7423422170675131 12.4740921120935688 2.6241066060138261 Ga
atom 13.3956003250141027 9.4534799221921535 13.4104408715393095 Ga
atom 13.3938369795515069 9.5651105123520175 8.0715303582365827 Ga
atom 13.1826502517387780 9.4125815492457470 2.7996477495444099 Ga
atom 15.0520595475386223 6.5710219455235510 13.5190131583999786 Ga
atom 14.8528293528706161 6.8536540216752586 8.1414280179975744 Ga
atom 14.8946035811886777 6.6461072736356925 2.8439206126254430 Ga
atom 6.7245954033487205 15.4347855068398641 13.4823403822894559 Ga
atom 6.5956328412719278 15.4176025200900604 7.9659107311979112 Ga
atom 6.7093322794898080 15.1129940080025236 2.6582885098180262 Ga
atom 8.3354123306876495 12.4895641831304847 13.4832962530613507 Ga
atom 8.3386701800852379 12.3714259616981206 7.9964807438544510 Ga
atom 13.2919020847517597 15.2500904640626693 13.5567845735898906 Ga
atom 13.2240387636530539 15.3396063061138470 7.9844704455378386 Ga
atom 13.2254889862870719 15.3809012713080264 2.7470627362387217 Ga
atom 14.8615443659199240 12.3865817581085800 13.5608940845420474 Ga
atom 14.9949016875747301 12.3475074541818639 8.1864517698228418 Ga
atom 14.7700342114148970 12.4145340265833291 2.7746951467972294 Ga
atom 9.9693609212819396 15.4281297374014805 13.3889109355617268 Ga
atom 9.9826945206289697 15.3725354164111518 8.2431899765273631 Ga
atom 10.0285649446739171 15.3391315398665231 2.6433828601318528 Ga
atom 11.5579564288107601 12.5421841603677606 13.4751201215469401 Ga
atom 11.5048079826019300 12.5781007742467335 8.1465713752533215 Ga
atom 14.7935121109665051 0.9961801277717318 8.0914478585813701 Ga
atom 14.9381089109006222 0.9076781659124221 2.4659723967582265 Ga
atom 3.3331184275668502 15.3203996470548542 13.4398484043816637 Ga
atom 3.2739036349376875 15.2406646298415414 7.9635742086025711 Ga
atom 3.4082612128037093 15.3868834551802180 2.7933012273486129 Ga
atom 5.1228979932732219 12.4313592611596828 13.3780003558695046 Ga
atom 5.1244336186600536 12.5044682532389224 8.1423088818649472 Ga
atom 4.9726343791213683 12.4489344289546420 2.5899756510632801 Ga
atom 6.6613193640314359 9.5690941560308449 13.5098133142998140 Ga
atom 6.5936530291961493 9.5147651625519565 8.1308141477861113 Ga
atom 6.6774915396901466 9.5492929845448629 2.7317753010559414 Ga
atom 8.2900360706999283 12.4461666791383312 2.7412190422102181 Ga
atom 10.0663293275693473 9.5377084400944838 13.5112725282986013 Ga
atom 10.0413328968605082 9.5488905219731190 8.0672826486313323 Ga
atom 10.1203306953135126 9.6902099554301415 2.6638040553443227 Ga
atom 11.5543189275465341 6.8153898568666760 13.4295638909612762 Ga
atom 11.6153507099634155 6.6214762283380555 8.0487431472676789 Ga
atom 11.4305213535598185 6.5472958239156407 2.6874264843218230 Ga
atom 13.1364133746159482 3.8332370548839747 13.4359818152269757 Ga
atom 13.1585770186034221 3.8589993092694748 8.1297679415494315 Ga
atom 13.2718877077696611 3.8728520742068957 2.4510861881341968 Ga
atom 14.9825594844321639 1.0031757928436005 13.4253462818550737 Ga
atom 6.6289542495945204 7.6652717452522232 5.2300187505577993 Ga
atom 8.3579599231940467 4.7935467078668674 16.1676965301491080 Ga
atom 8.1378024051135966 4.8562115966431252 10.9090804922136524 Ga
atom 8.2363176919789858 4.6476687907246363 5.3527202726360725 Ga
atom 9.9174343218601653 2.0040743454991912 0.1258098836477114 Ga
atom 10.0621420057288073 1.9971896748702869 10.7605714814669753 Ga
atom 10.0153484636410059 1.8980763125109450 5.4151258345147397 Ga
atom 16.5328940584072264 13.3207952124821958 0.1743298412041088 Ga
atom 16.5020362847804272 13.4857376252743073 10.8285188558563252 Ga
atom 0.1228073745522098 13.2548645423041140 5.5536206108902846 Ga
atom 1.7926947839073233 10.5438572870079472 16.1090188073993232 Ga
atom 1.6438577645506134 10.6085886856691367 10.8308417070587577 Ga
atom 1.8003358887543672 16.1845740362185637 16.1699678490396721 Ga
atom 1.6414240673268652 16.4066385093866565 10.7130698230955783 Ga
atom 1.6016066062975582 16.2898218177677307 5.1846275746435513 Ga
atom 3.3270007317293842 13.4217205400380166 0.0221676455308505 Ga
atom 3.3238322628775476 13.5360465947572255 10.8783378240048041 Ga
atom 3.3939677491704088 13.5261443559283645 5.4257950716076957 Ga
atom 4.9557575550157829 10.5395157527159391 0.1361963206641185 Ga
atom 4.9209219034178799 10.5840102979439461 10.8082399004846277 Ga
atom 4.9291324186832224 10.6328893505746915 5.3751139757267890 Ga
atom 6.5767107649488512 7.7322041740528498 0.0596714879012685 Ga
atom 6.6312187090266299 7.7381711606578234 10.9869484548577017 Ga
atom 16.5511283848664732 7.6092014355329667 10.7433972694480460 Ga
atom 0.0584771978147080 7.6547822975652666 5.4366953355881105 Ga
atom 1.7549019680244287 4.9281955317939641 16.1559894359376273 Ga
atom 1.5944956810051583 4.7790113656296445 10.7414970878234683 Ga
atom 1.6638080496906809 4.6434419739486774 5.3814982360566548 Ga
atom 3.1377415184972732 2.0422309731657169 16.1060696834061723 Ga
atom 3.2404635097854104 1.8258582821467562 10.7588329315964746 Ga
atom 3.2407630004378918 1.9036871733409215 5.4521543714873788 Ga
atom 0.0493301578458603 1.8884639620801658 0.0538840659414289 Ga
atom 16.5072300023273790 1.8478905776176786 10.6528667177590286 Ga
atom 16.4576000838985799 1.9704593232416363 5.4819933644795382 Ga
atom 1.6172137096085102 10.4127008745916214 5.4607793407619285 Ga
atom 3.3879140250372193 7.7068434600584705 0.0933840593519558 Ga
atom 3.3044373474582875 7.7326811335930214 10.8778637751491232 Ga
atom 3.4421090547317994 7.6425216293337410 5.4053999848664329 Ga
atom 5.0184041541028881 4.8690065651491707 16.0463077784647474 Ga
atom 4.8874924918435552 4.7841940293202887 10.7923543649367968 Ga
atom 5.0498116035897072 4.7969533715868264 5.3524099926145725 Ga
atom 6.5151721562796645 2.0612734633679115 0.1455740773821985 Ga
atom 6.6766815032990454 1.9361744402578858 10.8267923484507396 Ga
atom 6.6798122006677261 1.8914421236664443 5.3138129798016189 Ga
atom 16.5446879939444820 7.8103685866810793 0.0725732936155435 Ga
atom 14.8790048077395554 10.5185436071149407 5.4782944736061596 Ga
atom 8.4443640197541221 16.2844993198001795 0.0002551477809628 Ga
atom 8.4836273160962925 16.3577389080965112 10.5906917416197892 Ga
atom 8.4343375253840609 16.2240848513527780 5.3002763399892237 Ga
atom 10.0422638147756640 13.2904390205002372 16.1293133345196829 Ga
atom 9.8887791198534316 13.4976242182502073 10.8985079749672149 Ga
atom 10.0606450594663155 13.3972609501405451 5.3475174362716498 Ga
atom 11.6919958849274011 10.3899823464741985 16.1097551819118792 Ga
atom 11.6479420214117866 10.5714938162684238 10.8129003324340438 Ga
atom 11.4982753454217459 10.5283033753606627 5.4517434033293792 Ga
atom 13.0997460993921813 7.4709363092381578 16.1773664408091022 Ga
atom 13.1651341650670108 7.6212971231148225 10.7851583757108305 Ga
atom 14.8659475541658228 16.1504751886509510 0.0888114722985874 Ga
atom 14.8359697626729972 16.3278252902130596 10.7205917840464338 Ga
atom 14.7619239507912621 16.1164687467954586 5.2514031416876028 Ga
atom 11.5538435747569324 16.3953662314488362 16.1197025223576134 Ga
atom 11.7544576645087258 16.2706727331851617 10.7131703205235507 Ga
atom 11.5079127689293408 16.3052519672246632 5.5363160311881323 Ga
atom 13.3763044650041838 13.3803660668516375 16.0616274515814617 Ga
atom 13.1272031540634249 13.4020415910580244 10.7845483702739315 Ga
atom 13.1576394372496299 13.1198214391559098 5.4494010768879804 Ga
atom 14.8373597519240068 10.5821408472475440 0.0180872822537220 Ga
atom 14.9102157824361115 10.4730664750366920 10.7993672247962262 Ga
atom 8.2840071481206152 10.4304298854627611 10.8078225044842107 Ga
atom 8.3502265018091535 10.5123175770201485 5.3795163958484409 Ga
atom 9.8467648355333388 7.7032168236407310 16.0960506068055373 Ga
atom 10.0343587882872214 7.6585833432101422 10.7167670101587227 Ga
atom 9.8677919082577663 7.6470383622011058 5.4801810170616125 Ga
atom 11.5710729780522801 4.6552369811237551 16.0608347305460661 Ga
atom 11.5266872386695809 4.9004162811662022 10.7895244752357033 Ga
atom 11.5865520608373807 4.7862811035311861 5.2531265244036289 Ga
atom 13.2091663538865287 1.8242816969109577 15.9505511070887174 Ga
atom 13.1295984829516676 2.0143481767936309 10.7231972452672402 Ga
atom 13.2584130829329805 1.9920258506944550 5.2369773430721125 Ga
atom 13.1900757155242658 7.5104692141307599 5.4230448284039605 Ga
atom 15.0945375674002555 4.6701402469130020 16.1630721805886033 Ga
atom 14.7848390128346399 4.6768026727699992 10.8197678688946919 Ga
atom 15.0366438290672146 4.8133945275078762 5.5038229929721370 Ga
atom 5.1362644760382059 16.4174853182786862 0.0173595162039601 Ga
atom 5.1603161120218086 16.3140227460848308 10.7272838750636641 Ga
atom 8.3308236403336000 10.4888697245055713 16.1637270073548684 Ga
atom 6.5329578990161314 13.3707142139398822 5.3421707292113494 Ga
atom 6.6792362800201595 13.3949500441698319 10.6685494106541388 Ga
atom 6.6103813155574036 13.4100198880138617 15.9961588196285973 Ga
atom 4.9843358227216426 16.3098288362566315 5.2913055894030903 Ga
atom 3.3148475459567370 9.6829695106599054 10.2188369307741613 N
atom 3.3460352727641403 9.6065818201474418 15.6432801353549866 N
atom 1.8930971848237343 12.3115166335229489 4.8624236584747607 N
atom 1.4929932590320010 12.4746793012366535 10.1247687390326675 N
atom 1.6028079091770948 12.4937044305079112 15.4857530780594850 N
atom 0.0017644375074465 15.2731226819595118 4.7188708204708245 N
atom 3.2932487094092395 9.5166469737284611 4.8168074821935871 N
atom 4.9614037698997748 6.8713517137654083 15.6657573972221815 N
atom 5.0218547776199722 6.7753903816754777 10.1274587903864344 N
atom 5.0647396001568721 6.6200318985486399 4.6819505880020538 N
atom 6.6733433513248182 3.8241606806731636 15.6435433573207519 N
atom 6.5229950783671340 3.9206569820855122 10.2537895565028432 N
atom 8.1445002096731436 6.5674737982382290 15.6214340366863382 N
atom 8.1187202531793314 6.6870083942222678 10.0483736124106482 N
atom 8.3626490438406869 6.5906265656453398 4.8083163737650834 N
atom 9.9564186614563006 3.9018809780992445 15.4364621699807500 N
atom 9.8281826442776321 3.9416242978997476 10.0447956643921454 N
atom 9.8808054982595088 3.7816606104894754 4.7627207090071533 N
atom 11.5926586690949112 1.1084654686844437 15.4933706424938329 N
atom 11.5721392564057926 0.9124519170719889 10.1193217365973656 N
atom 11.6449083182911117 0.9119330986280936 4.6138174884952461 N
atom 0.0471084134591471 15.3302855784446681 15.4665600698015808 N
atom 16.5567734512186675 15.3687866472215600 9.9248390026581763 N
atom 3.2110771689744269 3.6531039167956387 10.1162587935161028 N
atom 3.4307813822001507 3.6597998394980173 4.6266955403623902 N
atom 4.9956091267687350 1.0643260881087060 15.4130352218107642 N
atom 5.0600246517330119 0.9694058000489889 10.1039525068225498 N
atom 4.9636608231628756 0.9731008606605329 4.7977759783978602 N
atom 0.1845735677266936 3.6838222653478314 15.4879236592521750 N
atom 16.5017141726936885 3.8309002409199051 10.1133876953574529 N
atom 16.4646436908797895 3.7576230199475105 4.7832952758711391 N
atom 1.7609944398164643 0.8674680888979099 15.3988965378223064 N
atom 1.6276816244613119 0.9707059791943295 9.9839235768316144 N
atom 1.6180627134701167 0.9334971741195339 4.8521123363999807 N
atom 6.5657288208533160 3.8153916898295175 4.6832856578947357 N
atom 8.1835460543351797 1.1343199443448408 15.6898329163638000 N
atom 8.3515577669822516 1.1152958086138520 10.1289900334047598 N
atom 8.3390669659826138 0.8709740286424487 4.7895515385911240 N
atom 16.5634403302275324 9.6745114939528705 15.4833858177644874 N
atom 0.0363494130798822 9.6058410139902701 10.1059730894622941 N
atom 16.5708742207417146 9.5532522719573105 4.7460326031383095 N
atom 1.6004239142787722 6.7928265273771080 15.6677008158265458 N
atom 1.6902054347780611 6.7292814743599818 10.1605754339415331 N
atom 1.7268681494943587 6.6076495668175150 4.7292753207178730 N
atom 3.2794193826609224 3.9269671151157892 15.3775856138548193 N
atom 11.5502138084058767 12.4308705568059246 4.5859048328518197 N
atom 13.3475541159178306 9.4381236969434035 15.4480756932506988 N
atom 13.2834602075887513 9.5905448383380083 10.0525975401717513 N
atom 13.1955318819007754 9.5188577604982640 4.8823051659708785 N
atom 15.0021194240035811 6.5488120020106253 15.6328855105128035 N
atom 14.8993305791102699 6.6058084086203888 10.1031251143139098 N
atom 14.9693399275423857 6.6980078157560685 4.7176932054613188 N
atom 6.7237156488226164 15.2183659097144837 15.6077921775748347 N
atom 6.8379473191813052 15.4068646572698711 10.0695624957138747 N
atom 6.6686805091131456 15.2051757486040149 4.7713290271198909 N
atom 8.3360365434468466 12.3733209471135659 15.5485887112273229 N
atom 8.2782444751054225 12.4290416627964202 10.1382531934979614 N
atom 13.1924219386520285 15.3792013685587516 15.5545894435896539 N
atom 13.2083694633769202 15.3066562094563796 10.1441216225837092 N
atom 13.1320325192455325 15.1834523397811960 4.7921153191128703 N
atom 15.0108132964494079 12.6218214916578617 15.4393261190363997 N
atom 14.9699683216741075 12.2863143631110017 10.0690099258771664 N
atom 14.9618004644212608 12.3914310339554348 4.8938817216491630 N
atom 9.9953452276149353 15.2899515456464368 15.4808005663966473 N
atom 9.9720947254126546 15.2893950656570610 10.2343045336092935 N
atom 10.0149368504350988 15.3332072737736560 4.7371618244403333 N
atom 11.7188187350235271 12.3692451424959664 15.4132425816300902 N
atom 11.5141883693488118 12.4171109440037934 10.1436090984780432 N
atom 14.8463323534075027 0.9646243257851965 10.1078508752067027 N
atom 14.8783152673899774 0.9310383455466523 4.6289013460791733 N
atom 3.5426721585234384 15.2936618515772533 15.6403044424289153 N
atom 3.4682330924739952 15.4326484929605279 10.0831748821960012 N
atom 3.3188742933051119 15.5054059437511427 4.6921574094566392 N
atom 5.0741036262581929 12.3513472911946032 15.5420179734744739 N
atom 4.9561351314638600 12.3255194590021766 10.1498565874703637 N
atom 4.8788871395313045 12.5116295833085118 4.6268041130006843 N
atom 6.6089128227364382 9.6526115737288443 15.4697005242969396 N
atom 6.6374685220960687 9.5869704254765704 10.1546226555872625 N
atom 6.7176614824428311 9.5206988691556358 4.9063718313415112 N
atom 8.3711247444002712 12.5179923821453141 4.6706935134933554 N
atom 9.9369208413485079 9.5613002560667919 15.4617975331448427 N
atom 9.9648498876284535 9.6107676855612709 10.1300664138021066 N
atom 10.0133959915983652 9.4966398149545075 4.7123515676887289 N
atom 11.4387631581329643 6.7443833633313979 15.4480046759918181 N
atom 11.5879861187999360 6.6599472564073006 10.0819549277703580 N
atom 11.5296894577412221 6.6410532681456811 4.7541661791618894 N
atom 13.1468456272467709 3.9534197850948449 15.4775661225722772 N
atom 13.1091219523506535 3.8127539873219281 10.1462817968390926 N
atom 13.3604582780420849 3.7996712713561123 4.5787650224961221 N
atom 14.9468553286867500 0.9209580611433802 15.4427733165896921 N
atom 6.7184559990189774 7.7017017527390657 2.1424244905770533 N
atom 8.1833104063075446 4.8382433263395255 12.9581593441675356 N
atom 8.3643032335576333 4.9040948633952492 7.3854190553420409 N
atom 8.4089878248930088 4.7215556747441623 2.0482110948654006 N
atom 10.0313989690327325 1.9382342900671581 12.6791244020821807 N
atom 9.7852612370359147 1.9262580255853268 7.3708863658099704 N
atom 9.8582050698830113 1.8553654049311934 2.1170164171649350 N
atom 0.0133764494439752 13.3905548566169657 12.8022154105331776 N
atom 0.1622423274655184 13.3224445830214222 7.5853279267527061 N
atom 0.0317759983559003 13.2414643935855096 2.1600165022514597 N
atom 1.7261930959196428 10.7205264569986962 12.9589523400639699 N
atom 1.7144837501910115 10.4519827002299337 7.5786186683727159 N
atom 1.7335974495567825 16.2387450103178708 12.7432625213038548 N
atom 1.6556703402360682 16.2696157570004765 7.2447832250295390 N
atom 1.7689203892307797 16.3812641439520625 2.0320506897295143 N
atom 3.3334776588576651 13.2926312050642093 12.8819469071844388 N
atom 3.3819394673594556 13.4581275186337379 7.3342915161057638 N
atom 3.2847185425360146 13.4409765565738279 2.1388495272531465 N
atom 5.0014105913930997 10.5475120967319764 12.8205104721085270 N
atom 4.9449727551651277 10.6699567215113351 7.3443894564114318 N
atom 4.9946349276885877 10.5790177328151138 2.1852628849257827 N
atom 6.6350126208886993 7.5561995069456644 12.9410564858926396 N
atom 6.5325922152102240 7.4802802141352487 7.4077047774435592 N
atom 16.5439492611122496 7.6936219789126676 7.3560368917738508 N
atom 16.4715081284525837 7.6224220425448550 2.1692253134477912 N
atom 1.4579609880643609 4.9568178120749566 12.7801868965302869 N
atom 1.5383646493727148 4.8072377033993909 7.4497754291774205 N
atom 1.7397113008402108 4.7181481449099660 2.1080141687535363 N
atom 3.3326850608292600 1.7992056421353424 12.6996312889833156 N
atom 3.2379408669838892 1.9952418327566739 7.4203809153756106 N
atom 3.3534290502392801 1.8557501631014053 2.0126077440760057 N
atom 0.0637567622521581 1.9867676152558145 12.6762935537040615 N
atom 0.0239652696313593 1.9299775617891211 7.4801713135246004 N
atom 0.0758465556024709 1.8680258898176190 2.1239832943217709 N
atom 1.4892401424572752 10.4078660431057965 1.9333772168208128 N
atom 3.3186631725953166 7.7997775562211560 12.9506432482824021 N
atom 3.4135905760918224 7.7141338276908433 7.5016225461969981 N
atom 3.4268460950088930 7.6177566676564359 2.1415686916335348 N
atom 4.8232960242895819 4.9319301589859892 12.8231921947630951 N
atom 4.9563270134649366 4.7871317350112808 7.4458349278209486 N
atom 5.0663068274665877 4.9170654355630514 1.9817569390692455 N
atom 6.5460011776407390 2.0053510053784041 12.7615855278913966 N
atom 6.6224175076350535 1.9541281424130257 7.3081569558515653 N
atom 6.5458612174433775 1.8814204761790774 2.0712077686342418 N
atom 16.5770493035571818 7.6708080675757691 12.8192651935790813 N
atom 14.7860944435968502 10.6008039364679281 2.0492156623114326 N
atom 8.3563687770018795 16.3231858510962873 12.8110853969343026 N
atom 8.3672689067953847 16.3260018117128212 7.3390486908969921 N
atom 8.3674991285317706 16.2549800471355717 2.0774245216559977 N
atom 10.0258735429702028 13.3488134757033077 12.7559857229459848 N
atom 9.9188428139515494 13.4911061900316795 7.3167967296117959 N
atom 10.0958953372481801 13.3022255880179987 2.1296296081183685 N
atom 11.7200087892991416 10.4888027420485983 12.8949343659148745 N
atom 11.7045279542380154 10.5945647573021091 7.5870145429541873 N
atom 11.7788036048943994 10.5313791592239223 1.9189015103984013 N
atom 13.3366275599991919 7.5013002304044178 12.7812716797424031 N
atom 13.1624510495431331 7.5248204697153893 7.5387876408065990 N
atom 14.8540875666316463 16.2672029090636237 12.7566771533253558 N
atom 14.9708852009686044 16.2911413655767880 7.3165596841387481 N
atom 14.9686482936660123 16.2155566647925902 2.0467748358483346 N
atom 11.7200517216357358 16.2206207678345429 12.7902930168877553 N
atom 11.4479033763080693 16.2478899788808917 7.5167792667965427 N
atom 11.5997673494331117 16.4201053324670099 1.9496630345865900 N
atom 13.3353075108398347 13.4379242859900323 12.8651365618176090 N
atom 13.3185671709714626 13.2854986079546347 7.4494794908340900 N
atom 13.2615406806729048 13.5655873303550667 1.8390404582934203 N
atom 14.9689869747783426 10.5249515318367504 12.8590415451805011 N
atom 15.0220801200269953 10.4908972029950487 7.5150091320970693 N
atom 8.3421259562466048 10.5673407137485711 7.4679363912855132 N
atom 8.3357018777444569 10.5693375668211296 2.1315749333624776 N
atom 9.8957065349450861 7.6541330914636125 12.8144730062452776 N
atom 9.9241096925727792 7.5892361325063638 7.4392168095068714 N
atom 10.0725062090090720 7.6642258333371283 2.0676615030811965 N
atom 11.5244247831518010 4.7026814976348366 12.7905160048744495 N
atom 11.5514343594824229 4.7044223945609929 7.3224567178401614 N
atom 11.4695621670183403 4.7187507808314546 1.9520456935569468 N
atom 13.2530557848924282 1.8873032677686075 12.8834267038776584 N
atom 13.2839014801312381 1.8913988246290681 7.3918763625147754 N
atom 13.3920226660684669 1.9428547192428840 1.9375159976314003 N
atom 13.2076818493503971 7.5170745155933778 2.1187568672882984 N
atom 14.8639922718334834 4.7275514674410513 12.7231661619357226 N
atom 14.8015349013320581 4.7594647228227496 7.5149679341886486 N
atom 14.9755201248031966 4.8554332990266635 1.9659348994321468 N
atom 5.0559907624296940 16.3274258727935333 12.6817933653134407 N
atom 4.9472257647379960 16.3822321752376254 7.3681198425093921 N
atom 5.1301985028190060 16.2018683006206068 2.0684797152425078 N
atom 6.7772809946419441 13.4043505100697029 12.6544173684822159 N
atom 6.7190557500342356 13.3720642397742164 7.2437234706491518 N
atom 6.5609468966758655 13.3379766672107269 2.0507118605470187 N
atom 8.3773597651772889 10.5004922565787151 12.8462440950805092 N
