#===============================================================================
# Created using the Atomic Simulation Environment (ASE)

# Thu May 11 08:59:50 2023

#=======================================================
lattice_vector 16.0100851999999989 0.0000000000000000 0.0000000000000000 
lattice_vector 0.0000000000000000 16.6381685999439100 0.0000000000000000 
lattice_vector 0.0000000000000000 0.0000000000000000 15.6179127599999905 
atom 0.0899000186164733 14.6434580929773439 2.4489881519949952 Ga
atom 1.5761775425286966 11.9739746205844764 13.0248307686778979 Ga
atom 1.7718377098215106 12.0785555452157460 7.7595085073196781 Ga
atom 1.6426567485681345 11.9718701801832523 2.5284955279346706 Ga
atom 3.0788437558040203 9.1814687191853359 12.9187860676245219 Ga
atom 3.1835974837463810 9.1840803095150481 7.7069829349694858 Ga
atom 3.1634173983794032 9.2439765531685385 2.7144164603905678 Ga
atom 4.9148082888019164 6.3921914255091732 13.0143890483739604 Ga
atom 4.7787639362264187 6.4299687504348899 7.8681627993227927 Ga
atom 4.7468012268963520 6.4985459223748716 2.5931155498043967 Ga
atom 6.4522522553853632 3.7343754612854676 12.9999908171861147 Ga
atom 6.3599668386225074 3.7683984647593678 7.8929438384372821 Ga
atom 8.0382107706667227 6.4189293102577185 12.9674253095169707 Ga
atom 7.8969228882849727 6.4862295751087311 7.7893138200907455 Ga
atom 8.0281169021354657 6.5111393632510532 2.5183060470161323 Ga
atom 9.6138701852387030 3.9403902888411362 13.0122264750221550 Ga
atom 9.6271269273999529 3.5547074546739008 7.8788139084225781 Ga
atom 9.6109825276183241 3.6627045860203755 2.5597950893373289 Ga
atom 11.1062762324570716 1.0805788854801752 13.1235228996287390 Ga
atom 11.2666192435797079 0.9258923416234106 7.7346526524134420 Ga
atom 11.1889509981317197 0.9852367866634155 2.5248462661161772 Ga
atom 16.0082162176119311 14.7385163134939638 13.0568619697555359 Ga
atom 15.9850240899923417 14.6662026364579194 7.9644607064509012 Ga
atom 3.1899176622999219 3.6494364055322799 7.8840559391827103 Ga
atom 3.1388399165503276 3.8328837145313321 2.6895950563512137 Ga
atom 4.8312738223330784 0.9020599951764195 12.9829629228541048 Ga
atom 4.8979714575100131 0.8166374552051476 7.7365034171620284 Ga
atom 4.7808930552511013 1.0409719902632153 2.4476580653286351 Ga
atom 15.9620615623781283 3.6621769737164382 12.9056303335291460 Ga
atom 0.0583043505742094 3.5320948904246197 7.8406288926767091 Ga
atom 15.9895511776881687 3.6809781238963644 2.5587664890350279 Ga
atom 1.6564010187684377 0.9449834347165950 13.0848800534943202 Ga
atom 1.5695939051898256 0.8270777497935010 7.8926219132159678 Ga
atom 1.5163626582605481 0.9371764798235300 2.7128235830515561 Ga
atom 6.4674596183057700 3.7188368041286775 2.7029549835191067 Ga
atom 7.9520046098250310 0.8385486169939813 13.0119942907462747 Ga
atom 8.0209640005686715 1.0758334302246062 7.8562386399550848 Ga
atom 7.9577008248724459 0.9199612303984607 2.5112799793751530 Ga
atom 0.0030292769564349 9.0856432588594807 13.0355141332664282 Ga
atom 15.8121719950908783 9.3223698013841023 7.6556062719104263 Ga
atom 15.8209661644284996 9.0822887560856493 2.6295206074542916 Ga
atom 1.6163004783817723 6.4089598025319745 12.9902015460179676 Ga
atom 1.4214964859832062 6.3814697088121859 7.8794641101925738 Ga
atom 1.5150494874700562 6.5964151008526244 2.6054548928930954 Ga
atom 3.1152922749848089 3.5515302861205953 12.9502349526493283 Ga
atom 11.1944612407579083 12.2644024998913412 2.4783290571043954 Ga
atom 12.6639651080167397 9.2626537053721076 13.1217685585422625 Ga
atom 12.7999173988630215 9.2185511041051313 7.9176571887023046 Ga
atom 12.5915528350906154 9.2309971019629238 2.5835195685816421 Ga
atom 14.4869124398114071 6.3791912161488886 13.0533618878628364 Ga
atom 14.2640685555105993 6.4150264403677220 7.9440605783813307 Ga
atom 14.2874434922136189 6.4358021933283993 2.6046334488133525 Ga
atom 6.4085219262631146 14.7499233885705721 12.9883930145496862 Ga
atom 6.3832772148481194 14.7169393125806351 7.7134394402301538 Ga
atom 6.4101281197313380 14.7331099682373576 2.3996571631410921 Ga
atom 8.0641448174160253 11.9954773455698920 13.0442005522755586 Ga
atom 8.1242820285873751 12.1314864437455920 7.6708324283992502 Ga
atom 12.7996323928845133 14.8094535243234962 12.8903472523355749 Ga
atom 12.8466324072719065 14.7457674056383130 7.9088227578496602 Ga
atom 12.9216240343763360 14.9523156890985938 2.6822068704007656 Ga
atom 14.3658072210450669 11.9266950852818407 12.9949922219228977 Ga
atom 14.2139791900692174 11.9989661441847666 7.8560155786845964 Ga
atom 14.2353855087588261 11.9782118467865626 2.5834811098736323 Ga
atom 9.6862355671614342 14.7317754599497874 13.0279595269826043 Ga
atom 9.6676851774564891 14.7516645196334828 7.8349653627727065 Ga
atom 9.6946081928766272 14.7584152857527755 2.4353514993394811 Ga
atom 11.3353385878837116 11.8431096243334277 12.8845475770414737 Ga
atom 11.0510982828906918 12.1001224675203449 7.9628530761202301 Ga
atom 14.3926399549455546 0.9031755064596771 7.6354484439832948 Ga
atom 14.4939854919636240 0.8496475841502522 2.6344851686635136 Ga
atom 3.2265588594901313 14.8634204192981247 13.1161924184676373 Ga
atom 3.2883219774307051 14.9043515966854141 7.7438291319056098 Ga
atom 3.2306506291716208 14.8675303705826423 2.6734250343141546 Ga
atom 4.7637126657696554 12.0826937052477970 13.0353912332026169 Ga
atom 4.8294433433521835 11.9466223730779397 7.7215337429062139 Ga
atom 4.6828788314579111 12.0216595451507242 2.7393629539761077 Ga
atom 6.3433384036537506 9.1759515954922772 13.0409058020908617 Ga
atom 6.4793485824696031 9.2551922816540220 7.7685873491635995 Ga
atom 6.4074758594597663 9.4185354110985937 2.5854058698699127 Ga
atom 8.0958179388683558 12.1236438685812153 2.4688483062835176 Ga
atom 9.4830456876382598 9.2824447651938797 13.1531341303204368 Ga
atom 9.4393410593530476 9.2739329172396126 7.8471089220070960 Ga
atom 9.6616733976027849 9.3808681913791130 2.5056606835992756 Ga
atom 11.1248876838573647 6.5040629919987065 13.0312631717894547 Ga
atom 11.1164918955919134 6.5112585393530438 7.8600156463257314 Ga
atom 11.0816545962199822 6.6669496257818528 2.7632630478815114 Ga
atom 12.7388989441488594 3.7569348285806687 12.8555960196999504 Ga
atom 12.8201484254958054 3.6979095314503994 7.8068496933200775 Ga
atom 12.7442870029933530 3.6899229656420274 2.7505889748195012 Ga
atom 14.5106139414559294 0.9364201700031065 12.9400884155560032 Ga
atom 6.3646870373797499 7.4484167568293884 5.1599946243406549 Ga
atom 8.0822670740045979 4.6271651442543362 0.0453172027780464 Ga
atom 8.0614648298753924 4.6601592986187397 10.3579605551403624 Ga
atom 8.1570344183667416 4.7284857936549756 5.1672511013521651 Ga
atom 9.6256661781390989 1.9623928488963771 15.4498228246358131 Ga
atom 9.6095706240829184 1.8841606664198671 10.5596604061921457 Ga
atom 9.5244263192634442 1.8171136583647280 5.2766182582258443 Ga
atom 15.8993267452479650 12.9680162688443339 15.4197516855808718 Ga
atom 15.9771403308505793 12.9241511444927077 10.4857350865209824 Ga
atom 15.8997378702419656 13.0481176662577329 5.1928994888677007 Ga
atom 1.4248037801219520 10.0796957125469984 15.5193566460612562 Ga
atom 1.6420101726919241 10.3151682799671232 10.2330673875973517 Ga
atom 1.5792504617434893 15.7431604482909098 15.6057770299212528 Ga
atom 1.8162990771545942 15.7857276212448561 10.7093368220035625 Ga
atom 1.5620158210107045 15.6698872552307762 5.3159369879542488 Ga
atom 3.0105461983129174 12.8845518238866923 0.0696334860238824 Ga
atom 3.3440509081435050 12.9063586646698720 10.3493580619369201 Ga
atom 3.1569431003684301 13.0544707555071913 5.2268125308423734 Ga
atom 4.8519191418635748 10.0555786932900499 15.5783571605584701 Ga
atom 4.9118966243037354 10.1057889499809939 10.4386907147177901 Ga
atom 4.8820722307260267 10.0022600029499475 5.2688311165564077 Ga
atom 6.5423406687774488 7.5037954235515851 15.6058525298230268 Ga
atom 6.3534091753873696 7.4241697753706832 10.3014376799793865 Ga
atom 0.0438789205241246 7.4926911465738772 10.3767818977308739 Ga
atom 0.0465096234279473 7.3357845560925314 5.3159687080553226 Ga
atom 1.5455867237045513 4.6112668129140610 15.5297407014391649 Ga
atom 1.5943331324033179 4.4277121666602897 10.4288800470642915 Ga
atom 1.6186115617747348 4.6299402289679552 5.1639538224651211 Ga
atom 3.2476821303313526 1.9626511889321128 0.0036542418565746 Ga
atom 3.1821975156766578 1.9044415673259349 10.3542743576233587 Ga
atom 3.0337407050494209 1.8469216870309033 5.2624425584189449 Ga
atom 16.0080286174443849 1.8883981964676899 0.0542770992402836 Ga
atom 0.0414242287752863 1.8434595751172078 10.5237871609888547 Ga
atom 15.9767937793067993 1.6088984940496700 5.2474181764540537 Ga
atom 1.6720504918606354 10.2350416653916643 5.1293732117790398 Ga
atom 3.1329288339260626 7.5215486993437528 15.6051155650204691 Ga
atom 3.2557287675840265 7.3541738090828668 10.5888262850892065 Ga
atom 3.1801235003420487 7.5847075356700309 5.1569799175179636 Ga
atom 4.7651334856330658 4.7137697132399499 0.0475674081074712 Ga
atom 4.8363682281610112 4.5769932393270034 10.5563854522319485 Ga
atom 4.7359595518813764 4.6812027725746583 5.2657786617249167 Ga
atom 6.3353697686879373 1.8130784486530609 0.0111370129136048 Ga
atom 6.4126240633684528 1.8938854158538918 10.5289522197859995 Ga
atom 6.3734183523372403 1.8301230989068931 5.2236204071860852 Ga
atom 15.9359722040308327 7.2160498114573342 0.0351209617270265 Ga
atom 14.4539514449061652 10.1601331387130802 5.0733999679461519 Ga
atom 8.0140531169691975 15.5922067363245560 15.4313881144994216 Ga
atom 8.0935252084518066 15.7244898918621807 10.3738464028924842 Ga
atom 8.1195150533403169 15.5794717818331918 5.0985032719445389 Ga
atom 9.6534909336013683 12.9391412274495305 15.3620108412745662 Ga
atom 9.5908101345185219 12.9273207094092868 10.4197128992353285 Ga
atom 9.5068381833323965 13.0282938645495143 5.1586929822267775 Ga
atom 11.1953751945280455 10.0962646705911627 0.0740278399377926 Ga
atom 11.2454396089610498 10.0537929256232808 10.4576932173050086 Ga
atom 11.2021855627119713 10.1042324416319502 5.1640305115002478 Ga
atom 12.7080497678760604 7.2548032821222179 0.0566113148718975 Ga
atom 12.8875291262666831 7.2864858311352760 10.5278252158260290 Ga
atom 14.4441789344073097 15.8018846494966070 15.5946866094847980 Ga
atom 14.6015533488514766 15.7752821776817349 10.3289983253854594 Ga
atom 14.5488923215048871 15.6958647379103216 5.3131435386301087 Ga
atom 11.4351748947593848 15.6666127928512413 15.5583237075583742 Ga
atom 11.2252556750808257 15.6801669479924808 10.4127926036811207 Ga
atom 11.2774953446037909 15.7345861766409083 5.3390302091891249 Ga
atom 12.8022246027545776 12.9712892021127839 15.5931768386215595 Ga
atom 12.8276182424767935 12.8508434121745214 10.4715216489762479 Ga
atom 12.7688709142185637 12.9107746054892889 5.2841208915951956 Ga
atom 14.2510580625746961 10.1937897473700136 15.5577385538939996 Ga
atom 14.3666361919530026 10.0345557833353478 10.5061502606640573 Ga
atom 8.0674099561013133 10.1454869253745024 10.3242397164140591 Ga
atom 8.2039880528373299 10.2124638023438923 5.1772403941560938 Ga
atom 9.6358913391686105 7.4358167466295599 15.5110063353629322 Ga
atom 9.6408155034643226 7.3764048079450282 10.6366237825831949 Ga
atom 9.6123761999529087 7.4430027536946266 5.2789588826023639 Ga
atom 11.3490566485526188 4.6847676537262295 15.5293333458202429 Ga
atom 11.2510675511518841 4.7124915279656063 10.4039175431521915 Ga
atom 11.2479902024136909 4.5913850556084261 5.2613452957103704 Ga
atom 12.8500116951784999 1.9735857201909464 0.0303774699104666 Ga
atom 12.7707436093902160 1.7077817170587233 10.3093104565889231 Ga
atom 12.8265090292530317 1.6911370479293022 5.1465240434349822 Ga
atom 12.7566668421605840 7.4509746663369611 5.3349727757924503 Ga
atom 14.4029111162922696 4.6099432361325343 0.0326250771146737 Ga
atom 14.3958930224417436 4.6842385965965079 10.4243867131687722 Ga
atom 14.4965485946148789 4.5563637748587027 5.3219829014075097 Ga
atom 4.6971073685197613 15.7116405260529781 15.5377553045039214 Ga
atom 4.9372008609148335 15.8049737306140266 10.3421229436335285 Ga
atom 7.9442163274161723 10.0291235385048605 0.0616753399487723 Ga
atom 6.4524682689898887 12.9977626942476938 5.1137980491560517 Ga
atom 6.6346941069705041 13.0122898877080289 10.4260918413186410 Ga
atom 6.4055056185816683 12.7703506921995462 15.5678041362132600 Ga
atom 4.7670725500320694 15.7888399874055239 5.1417108250834769 Ga
atom 3.1438961555176479 9.2917382158362916 9.7311129394855502 N
atom 3.1837068665536674 9.2880087920352974 14.8811109064240945 N
atom 1.6086727796380105 12.1626569968271259 4.5265628732397163 N
atom 1.7482699448126322 12.0640143290656514 9.7191921934103327 N
atom 1.5502175775596638 11.9795293636595783 14.9846682769250954 N
atom 16.0016565492878122 14.7821636776568415 4.4272312595154961 N
atom 3.2858597710100850 9.3671050115020975 4.6130557309242173 N
atom 4.9218371612908491 6.6504609622252691 15.0123701510365475 N
atom 4.8611319348075819 6.5426529216365736 9.8452104080541289 N
atom 4.8151403770134129 6.6542366110594413 4.5270496643260572 N
atom 6.5283131472636295 3.7866440254525311 15.0377832362049002 N
atom 6.4764867297675037 3.6659899992075631 9.7712121673465564 N
atom 8.1644224590476728 6.3889351495620170 14.9626176633266130 N
atom 8.1089294036606123 6.5281886257085446 9.7694468992695676 N
atom 8.0235880226959271 6.6342589882677636 4.6470820484174036 N
atom 9.7462588841449325 3.8030607884373278 14.9968959768718690 N
atom 9.6059537484728725 3.7069700654354238 9.8430244605559754 N
atom 9.8567633750476418 3.7240420720550915 4.4258728075371021 N
atom 11.3591636920998269 0.8694677903380912 14.9202220886710837 N
atom 11.1692931032354288 0.8903793283746971 9.7253509693738991 N
atom 11.0918029199585764 0.9698642702270204 4.4531017188781652 N
atom 0.0250928195587102 14.8411082145361277 15.0335269083181444 N
atom 0.1005649731224226 14.7304770088450159 9.9225239069316586 N
atom 3.2460915597927689 3.6524099450484897 9.8064502874332309 N
atom 3.1523970706254354 3.6833157778113499 4.6005634237925426 N
atom 4.7471265045075679 0.9949155275403152 15.0010786584811662 N
atom 4.9451258723763436 1.0345146542427857 9.8145416984361873 N
atom 4.8230278663266724 1.0770932364333474 4.5604483320380549 N
atom 15.8675952014750621 3.7338051153234497 14.8074788114479219 N
atom 0.0440104979516226 3.6044025113157074 9.8010535347400189 N
atom 0.0362009808203384 3.5178917375634255 4.5616548089670204 N
atom 1.7308570730620292 0.9767247555864697 15.0252045906509490 N
atom 1.7182123076034437 0.9071081638687323 9.8859965198215196 N
atom 1.6264053911509033 0.8730707059437662 4.7665364557838084 N
atom 6.5496591493728591 3.7916057265426519 4.5822228953156579 N
atom 8.0020311135727162 0.8825011563875100 14.9025441015333833 N
atom 7.9933942015172912 0.9694436652064806 9.8796307344650138 N
atom 8.0184076934507544 0.9257296556385339 4.6246088043949758 N
atom 15.9542203791381976 9.2287567920958153 14.9534294637239977 N
atom 15.9553716292672991 9.2733285915456793 9.7502733691677843 N
atom 0.0420114077614959 9.2879909810586625 4.6085571904046878 N
atom 1.5611774048385316 6.4115101519991482 15.0653237354591738 N
atom 1.6559634324135264 6.4582224394091856 9.7842408859578427 N
atom 1.6603475576573126 6.5232923517272070 4.6866874393751656 N
atom 3.2968308536021897 3.6442343177708389 14.8746193489000760 N
atom 11.2056472036694519 12.0658426830991168 4.4174375945930615 N
atom 12.6779549017401294 9.2007962265060605 15.0315297885901167 N
atom 12.8268671627165869 9.2094107714036966 9.7886683794727372 N
atom 12.7443572844934732 9.2419314757646180 4.5823192217014412 N
atom 14.3193278812469025 6.3921060011935271 15.0422983081584256 N
atom 14.5035388451810228 6.4608902303526046 9.9027965846229193 N
atom 14.3659103675019804 6.5718307816619426 4.7459320371131684 N
atom 6.3199951585519152 14.7073014951794860 14.9408911672183660 N
atom 6.5043886897476950 14.8066826569530239 9.7094733997098022 N
atom 6.3270173373638334 14.8246414180546751 4.3988679121729781 N
atom 7.9681298310756468 11.9483456250046292 14.9875080946866461 N
atom 8.1216540047223535 11.9300543908605334 9.6496897887493933 N
atom 13.0131052539612391 14.6583376208890854 14.8734080461702263 N
atom 12.8246450158515479 14.8795776962434090 9.7526637572558208 N
atom 12.8439372704279844 14.8333576435400083 4.6678450657764241 N
atom 14.2951981771109491 12.0229656625685379 15.0487017610922589 N
atom 14.3857838010354406 11.8632030080310216 9.9254295788407152 N
atom 14.3201428701209252 12.0203958840648326 4.5593696225775604 N
atom 9.7447018515882196 14.9052421751617761 14.8743864710778269 N
atom 9.7189388863458603 14.8064676413759386 9.8183018802544471 N
atom 9.7001434850996997 14.7677475830270168 4.4244118009058067 N
atom 11.1892684079645619 11.9771969866510730 14.9117227970391664 N
atom 11.1917244433096883 12.0188475965205921 9.8335720657515076 N
atom 14.4720099719433115 0.9956287742576025 9.6050223347056765 N
atom 14.2769162897685824 0.7916652642651302 4.5732808334504300 N
atom 3.1425126970791628 14.6838380124350536 15.0270919790751076 N
atom 3.1807263454583916 14.8506306608177319 9.8417135766428014 N
atom 3.1367530106370234 14.8370516693609495 4.5635251125184855 N
atom 4.7386927390702738 11.9570433140830232 14.9092208147613690 N
atom 4.9605492755984137 11.9562163406749242 9.6823376042804625 N
atom 4.7364953782023074 12.0612579755779521 4.6297604430484443 N
atom 6.3938978916455032 9.2604957523203666 14.9429691029846676 N
atom 6.4673650776285969 9.2709297213523794 9.8027707069458323 N
atom 6.5056550133287807 9.2248842171920131 4.6079631267073413 N
atom 7.9397085867786350 12.0464344594691486 4.4802969343300587 N
atom 9.6174750526921553 9.2950642331808311 15.0257127046450929 N
atom 9.7045494521755469 9.3017629954256869 9.8024632516752419 N
atom 9.7363768690031645 9.2703682131534286 4.4470537441279543 N
atom 11.2455488392276077 6.4727146433217300 14.9083787865477948 N
atom 11.2088228199124504 6.5431877755518215 9.8568841879007323 N
atom 11.1449573468596501 6.5000415911996257 4.6687412771491390 N
atom 12.8039011067658564 3.7180701466889547 14.7972420956190760 N
atom 12.7813507296183388 3.6845900145546215 9.8671836626774336 N
atom 12.9098257291617493 3.6142811391257266 4.7039589391646199 N
atom 14.5575957094074653 1.0442379524125545 15.0157671235088745 N
atom 6.4095418770738286 7.4817835548509972 2.0359199534938703 N
atom 8.0999013916570419 4.6454437260528634 12.3240024852778109 N
atom 8.0523295497675278 4.5715383727475025 7.2648417904189113 N
atom 7.9145232713220146 4.6024561133266708 2.0047792737896031 N
atom 9.6694001259503004 1.9423346507174133 12.4198227086805062 N
atom 9.6441955537306665 1.8633817587880508 7.2244927479279575 N
atom 9.5588604887393114 1.8251053385456377 1.7251976342683393 N
atom 16.0015266748417098 12.8938453053143736 12.5719875574538786 N
atom 15.9421244661475168 12.8638920742527088 7.1960002383397450 N
atom 15.9856313662066754 12.8717429259386211 1.9073261162895958 N
atom 1.5391934032339933 10.1630103946363839 12.3289339200441415 N
atom 1.5797931718581544 10.2207645180466624 7.1340489892141692 N
atom 1.7027865765162666 15.6384912032587771 12.5043426938018474 N
atom 1.5106346249062130 15.7351766813892020 7.1184312028546222 N
atom 1.5878953286889617 15.7335927142396077 2.0062132501019643 N
atom 3.2160772911179918 12.9623868712580936 12.3063214743138527 N
atom 3.3324034401856801 12.9945312638589154 7.1417509375912136 N
atom 3.2042114387505261 13.0126410609370584 1.8771763354833062 N
atom 4.8682888843084422 10.2095963121758420 12.3757489463685530 N
atom 4.8360144987907567 9.9709878046444800 7.1573738991769851 N
atom 4.6671279262118857 10.1404798340636635 1.9345910440794403 N
atom 6.4452065270275680 7.4958109270913074 12.3002859650374123 N
atom 6.4373808994633919 7.4646922253110395 7.1880720396935658 N
atom 15.8499452179777851 7.3866903672258175 7.1577371766680864 N
atom 15.8432179070190475 7.3380223350927070 1.9806730400068406 N
atom 1.6034741435967148 4.8532349036790468 12.4514678388312383 N
atom 1.6647206065778937 4.6627617986386163 7.0593172276448106 N
atom 1.6047329399598753 4.6441050124141050 1.8992504937894863 N
atom 3.1461090041859729 1.8166825537761486 12.2270237057300601 N
atom 3.1186260856435317 1.8093062608572787 7.2028384962289467 N
atom 3.1069779814465219 1.9363203741982036 1.9329588359676830 N
atom 0.0504302114904718 1.7502249326123152 12.4698339996804908 N
atom 0.0398666454958186 1.6988229899232992 7.2696297902813258 N
atom 15.9919541519707309 1.8547034590576685 2.0146211612430802 N
atom 1.4577183206223476 10.0205663791172590 1.9778559816644989 N
atom 3.2233037017522812 7.2954400991886059 12.5549607052662999 N
atom 3.2001290415403782 7.4570593589264638 7.1879407037178806 N
atom 3.1165102208975290 7.4301602178275123 1.9350303526993744 N
atom 4.8726894070967006 4.5416855638513081 12.4699140030705067 N
atom 4.7552444514675791 4.7337499748192133 7.2456449394583196 N
atom 4.6846595210160169 4.5135573471488435 2.0593062804378870 N
atom 6.4865123629789467 1.8981389454258595 12.4656587830783430 N
atom 6.3926312259758058 1.8646001251078939 7.1765039098244570 N
atom 6.3847426546945840 1.8394415101706025 1.9062607756782441 N
atom 0.0023947776597596 7.3698528536829251 12.3889923630237497 N
atom 14.3818694074405844 10.1319231022789911 1.8556599602224590 N
atom 8.0934575389359278 15.7383341318740335 12.3553540586033321 N
atom 8.0269247165538982 15.7087955205529024 7.1871156107242875 N
atom 7.9732095874005671 15.7198513059590912 1.8181867926208775 N
atom 9.6337495335562906 12.9126284564825706 12.3443200377596032 N
atom 9.6485512647009486 12.9930172537305459 7.1161861951531336 N
atom 9.5142240049405924 12.9535385657259763 1.7011288481006916 N
atom 11.1026890279632919 10.0541187335015696 12.3517738133867887 N
atom 11.1333488017765934 10.2467700154222801 7.1634934220222561 N
atom 11.1697246314123664 10.3417743138436862 2.0672232677683593 N
atom 12.7744402358618778 7.3375249809645142 12.4654090032126224 N
atom 12.7376338917675778 7.3039538276329461 7.3322285328568420 N
atom 14.4280344718077114 15.7205124734139012 12.3267810549423054 N
atom 14.3781503286862442 15.5947861835285888 7.2594042033604254 N
atom 14.5444090800051598 15.7202255406731144 1.9205715813644622 N
atom 11.2305696148564458 15.9140127647413383 12.3028665272631983 N
atom 11.1363420417367962 15.6677749016052577 7.1768602938779447 N
atom 11.2282734612512130 15.7613440443387383 1.8979348698863310 N
atom 12.9220022339381675 12.7701503397115026 12.3149729952318587 N
atom 12.6886950084058832 12.9619864409372383 7.2043065487500808 N
atom 12.7876999086536927 13.1394251483398339 2.0156625896369440 N
atom 14.4123603592731619 10.0256220245345098 12.4757090240901025 N
atom 14.2848922122720605 10.2697330406059510 7.0987195003787091 N
atom 8.0736810395883403 10.1458026883681338 7.1535545148529343 N
atom 8.0915722647427977 10.3042712779132888 1.8984725910534961 N
atom 9.5450680185057397 7.4315236945519088 12.4149800066833578 N
atom 9.4265879292964136 7.4308666647946646 7.1939717808957147 N
atom 9.5311065459115802 7.4891264091356513 1.7587032246212475 N
atom 11.1547777305422002 4.6846092615345567 12.3520310727652642 N
atom 11.1036378387594823 4.6183977797528932 7.3630295533599401 N
atom 11.1957167477994339 4.7272945834993756 1.9762577435458073 N
atom 12.7328663880871638 1.8743394072772315 12.2818061021060299 N
atom 12.8048308525974548 1.9907296829991394 7.1500323100531196 N
atom 12.8882077639074950 2.0288705835330982 1.9687526831653062 N
atom 12.6284889487079628 7.4395261275808711 1.9503112364013933 N
atom 14.4562403396529184 4.5844916059602960 12.4406528696720322 N
atom 14.4858378375894432 4.6752452001501208 7.2246534422027260 N
atom 14.3560411270451045 4.5565362973771064 2.0531293774988946 N
atom 4.9556660861655901 15.6740767172295001 12.2843004104333708 N
atom 4.8179712578132854 15.6055783033675137 7.1315256006440650 N
atom 4.7523940666921671 15.6736855874826695 1.9523468311647105 N
atom 6.4369871842084319 12.8685683950000751 12.3481931828833655 N
atom 6.4196244655799628 12.8419726623392929 7.1353792467125388 N
atom 6.4255932304931926 12.8028174401475319 1.7657068098565303 N
atom 8.0382653360677931 10.1445510350555086 12.3541188193707629 N
