#===============================================================================
# Created using the Atomic Simulation Environment (ASE)

# Thu May 11 08:59:10 2023

#=======================================================
lattice_vector 15.6273739999999997 0.0000000000000000 0.0000000000000000 
lattice_vector 0.0000000000000000 16.2404434541285205 0.0000000000000000 
lattice_vector 0.0000000000000000 0.0000000000000000 15.2445761999999903 
atom 15.6133049669844706 14.4168797695642166 2.5196466969813893 Ga
atom 1.6713965600976821 11.6689751847524512 12.6686556621435908 Ga
atom 1.5376892617763953 11.6502962278342128 7.6174018620658765 Ga
atom 1.6556780497391419 11.6993315873982553 2.6367146912013419 Ga
atom 3.1338153408118377 8.9002383823706932 12.8199979673339719 Ga
atom 3.1576630805447161 8.9740461686849251 7.6585553991507025 Ga
atom 3.0755031800012782 9.0495160834186557 2.6345883979658424 Ga
atom 4.6161664341167805 6.2918854161029127 12.6867862897901116 Ga
atom 4.6053997491776189 6.3099538342001917 7.7169261062639869 Ga
atom 4.6955254243096576 6.2992490265545920 2.5724380596829781 Ga
atom 6.3451776782589793 3.5848857972865811 12.6867022460983652 Ga
atom 6.1851829169657417 3.5600169829992532 7.5702914175495151 Ga
atom 7.8396524951933850 6.2580989535409595 12.6946153019734460 Ga
atom 7.7376274290007423 6.3050965766783635 7.5515346810035675 Ga
atom 7.8129328902478612 6.3208221159953082 2.5569201704581519 Ga
atom 9.4051315945610643 3.5078237134606005 12.6763931764888103 Ga
atom 9.3744891898284504 3.6151523351541726 7.7185505414509947 Ga
atom 9.3958328003800347 3.5473405493212957 2.5453340254349559 Ga
atom 10.9105429824404823 0.8728496415538632 12.7024181969093437 Ga
atom 11.0206353011700369 0.9829063609714894 7.5387972102037262 Ga
atom 10.9129589812169066 0.9422087778449326 2.5860540523824449 Ga
atom 15.6222840525184079 14.4229930217736371 12.7023611208285327 Ga
atom 15.5856073574031893 14.4391461705036264 7.6632619139529199 Ga
atom 3.0489450303389911 3.5824163392858979 7.5898111735768410 Ga
atom 3.1160391498125253 3.6129741336144288 2.4977101768582828 Ga
atom 4.6968035540128223 0.7392742985260001 12.6829543155280202 Ga
atom 4.6364462437302931 0.9121768938388187 7.6283343611434802 Ga
atom 4.5999381558843213 0.8873251764501586 2.4733877924117733 Ga
atom 15.6136174318123846 3.6382933229891421 12.7108740040972759 Ga
atom 0.0578999876083128 3.5382827534806833 7.6408042832849983 Ga
atom 15.5523456911685685 3.5498053746326819 2.4660113026932549 Ga
atom 1.5232659668006172 0.8589538549177618 12.6546342964377043 Ga
atom 1.5452779308456086 0.8486713582695999 7.5964380214898357 Ga
atom 1.5446024983466549 0.8720813526694635 2.4713332489333570 Ga
atom 6.2414352227306775 3.6338716553170163 2.5169258150621148 Ga
atom 7.9012954258576347 0.9454270370550409 12.6645060866597969 Ga
atom 7.8388740251115356 1.0090710926423503 7.5479897298336756 Ga
atom 7.7149302736518086 0.8794007698208127 2.5440656963770834 Ga
atom 0.0071375783237950 9.0297499236909182 12.7030335594950987 Ga
atom 15.6240217209219061 8.9603397023996170 7.7709027057839659 Ga
atom 15.6041108471748302 9.0437197184970266 2.5879867082756531 Ga
atom 1.4651123498800791 6.2342366077625915 12.8106356727438104 Ga
atom 1.5571504707588959 6.2778785532432115 7.6138618507537918 Ga
atom 1.5617254950555974 6.2870447293907246 2.4803911856343830 Ga
atom 3.2108350043218636 3.5132490693102483 12.7018416928704294 Ga
atom 10.9235359011750344 11.8137510624286257 2.5515396528153587 Ga
atom 12.5526478897875364 9.1543483378196040 12.7990856357460459 Ga
atom 12.4864385600048298 8.9569648615183013 7.6092205636691848 Ga
atom 12.4920495575498762 9.0643718042008654 2.5252100933813750 Ga
atom 14.0217233195936242 6.3394780212997279 12.7972496539523508 Ga
atom 14.0560641264080139 6.3856412644168534 7.6688350925658897 Ga
atom 14.1117794448310736 6.3221807576107816 2.5699198450861878 Ga
atom 6.2774750785730333 14.4555778033666211 12.7645728784654153 Ga
atom 6.3144409641500188 14.4478694710242515 7.6315066022743290 Ga
atom 6.2305420119785788 14.4328783331224262 2.5153693118837319 Ga
atom 7.6815419788544244 11.6953644503257781 12.6934569585899979 Ga
atom 7.7711512882478981 11.7910167367733560 7.6177202301534850 Ga
atom 12.5345924714640482 14.4588514585695442 12.7471121602072124 Ga
atom 12.4204854892153946 14.4800304625290401 7.5979829404327575 Ga
atom 12.5083517112638827 14.4288326605016373 2.5093072284438489 Ga
atom 14.1044639240711476 11.7030936125711111 12.6361564525090664 Ga
atom 14.0927284689856300 11.7366611148116107 7.6718075953909031 Ga
atom 14.0830637170921467 11.6410540129906117 2.6029745328596166 Ga
atom 9.3613191285349018 14.4667083717306024 12.6937718441860401 Ga
atom 9.4099536611457424 14.5166007701448478 7.7013917684634077 Ga
atom 9.3441164905796121 14.4864516702642074 2.4796216168429672 Ga
atom 10.8497103589623620 11.8038164215253794 12.7570525575311819 Ga
atom 10.8456302557832274 11.8259634898964521 7.5278257049329680 Ga
atom 14.0800128061296679 0.8962276014271242 7.5672642609124861 Ga
atom 14.0272564210033650 0.8884873051329487 2.4169320068946365 Ga
atom 3.0534161407684275 14.5167645341177423 12.6976264427326555 Ga
atom 3.2696381694346637 14.4521106082881179 7.5869831730903456 Ga
atom 3.1804040828250342 14.3922853218521940 2.5370687935248637 Ga
atom 4.6852800254998126 11.7664414179340788 12.7070909223001891 Ga
atom 4.6593452350871294 11.7335220869097370 7.6483226587135835 Ga
atom 4.6751101329678466 11.7945496170783155 2.5646757242951699 Ga
atom 6.2333006378226079 9.0260627242498579 12.7088667310246759 Ga
atom 6.2624435302136767 9.0395839524999797 7.6831167008992676 Ga
atom 6.1917814346850468 9.0554108700109932 2.5633672944739674 Ga
atom 7.8131230862601546 11.7368493471098603 2.5237211374944613 Ga
atom 9.4147053553311952 9.0327485501807150 12.6871712861017407 Ga
atom 9.3814674136372034 9.0445802858432547 7.6401243176924742 Ga
atom 9.3446784403042216 9.0693739686011430 2.5343905916033398 Ga
atom 10.8881383950385864 6.3264987164392004 12.6777522062105419 Ga
atom 10.9372096057211561 6.3642528897489443 7.6460163515656490 Ga
atom 10.9272539341511852 6.2825068596266327 2.5658527997949303 Ga
atom 12.5082122351622242 3.6795384574253673 12.6373731118858981 Ga
atom 12.5043934701859278 3.5500982273138639 7.6055682810590977 Ga
atom 12.4345942154552116 3.6503700459786206 2.5939667910860380 Ga
atom 14.0395453937542758 0.9173185304969128 12.7427102658693023 Ga
atom 6.2704366140699701 7.3553085665299163 5.1417869630326436 Ga
atom 7.9158446031443743 4.4934160169392223 0.0225804108447140 Ga
atom 7.8867821795130189 4.4606581783234702 10.1109794070254964 Ga
atom 7.8152366894647249 4.5044277599770206 5.0807582190003435 Ga
atom 9.3814504682329769 1.8262524295634468 0.0057768436915926 Ga
atom 9.3901557337605865 1.7401222792625806 10.0428069460672091 Ga
atom 9.3920964447059010 1.8011673591237838 5.0213990460131734 Ga
atom 0.0020743115795706 12.5713976269392944 0.0382391928431917 Ga
atom 0.0082533322890492 12.5768586919096244 10.1033876547368191 Ga
atom 0.0828971794540668 12.6528841132507743 5.0592726265084567 Ga
atom 1.6012629773569733 9.9101312336015166 0.0737130814371697 Ga
atom 1.5373749197747220 9.9325581875239877 10.1701745833781132 Ga
atom 1.6475867728957521 15.3305515347423533 0.0259615149973349 Ga
atom 1.5996454843931145 15.3021271447177547 10.0587226849246356 Ga
atom 1.5718839767936479 15.3748269999860003 5.0753745038343698 Ga
atom 3.2194806554970326 12.5539664246113354 15.1312118200714725 Ga
atom 3.0832597960372428 12.6830579869906668 10.1833368425400312 Ga
atom 3.1849550191446481 12.6796293097832766 5.1006531685568088 Ga
atom 4.6182641252259735 9.8844519801475261 0.1058335427043444 Ga
atom 4.6656874999133109 9.8926190502061395 10.1977826167399854 Ga
atom 4.6456943576885914 9.9735404600307636 5.1589176204911844 Ga
atom 6.1504624194198616 7.1616342752965130 0.0518275369764738 Ga
atom 6.3446416565695776 7.2895116660112897 10.2139773762196171 Ga
atom 0.0034273544594202 7.2089453087335498 10.2665310607951081 Ga
atom 15.6018676970629127 7.2078947652206251 5.1222864700466202 Ga
atom 1.5617981620457457 4.5019159842008598 15.2260153796418685 Ga
atom 1.5844057543567094 4.5597081454326602 10.1629000810750352 Ga
atom 1.5199097441198455 4.6099401447780659 5.0221818481304652 Ga
atom 3.1544835113241061 1.8850671826120011 0.0115532625349875 Ga
atom 3.1424799872574773 1.7533916639972122 10.1427411675363626 Ga
atom 3.1519427353335026 1.8939405192883085 5.0772290881967344 Ga
atom 15.6136926964421470 1.8016524127042151 15.1512742933293527 Ga
atom 15.6216973330161046 1.8332961450959473 10.1739664848021949 Ga
atom 0.0328817812092391 1.7476586750530860 5.0504052248101692 Ga
atom 1.5446584467209357 9.8284498902380015 5.1929291918380898 Ga
atom 3.1838975103150822 7.0917153552990841 0.1214536970971312 Ga
atom 3.1531592865508493 7.1955318498742171 10.2792143927184956 Ga
atom 3.1051563515381542 7.1650922683874185 5.0888566308189302 Ga
atom 4.6828152204412694 4.5310796013049952 0.0195154793012659 Ga
atom 4.6846580512277916 4.4683645987627196 10.2285669195945914 Ga
atom 4.6976993407290850 4.5759208527776316 4.9561596446030967 Ga
atom 6.1862121657698994 1.7357289218343659 15.1997017846540103 Ga
atom 6.2125719556072054 1.8496843928460898 10.1092827419060676 Ga
atom 6.2279897320928850 1.7575738906087710 5.0549796334589354 Ga
atom 0.0707851316542497 7.1918785054157031 0.0194722445814372 Ga
atom 14.0841954006998176 9.8827822905900611 5.1051376340829711 Ga
atom 7.7861545292377814 15.3372871485709865 15.1193626326782944 Ga
atom 7.8549939431262716 15.3466824935267603 10.1396716823401327 Ga
atom 7.7621545848367974 15.3640005861588609 5.1155862019490579 Ga
atom 9.4310187101874252 12.7027193461592827 15.1940728290074318 Ga
atom 9.2934387713735784 12.7325338114485511 10.1959205194419162 Ga
atom 9.4921548052133549 12.6329454493593918 5.0283983975252928 Ga
atom 10.8830769291909100 9.9116959870394172 0.0637167000907174 Ga
atom 10.9589305041248277 10.0594965497585900 10.2814443761381380 Ga
atom 10.9541658366771628 9.9032045269201134 5.1147858963888098 Ga
atom 12.4638675825076923 7.2474044974009182 15.2352034255004618 Ga
atom 12.3679810908096002 7.2602669206186565 10.1863781790888286 Ga
atom 14.1850842916516697 15.2781478442199621 15.2035456663786537 Ga
atom 13.9971456620860248 15.3907699352997351 10.1409961328840321 Ga
atom 14.0760163077055527 15.3631726947820209 4.9996588816055496 Ga
atom 11.0059654127027393 15.3235968255326789 15.2301265417408729 Ga
atom 11.0840671305176688 15.3064305892124075 10.2325583067833144 Ga
atom 10.8613548962419166 15.4120997391490508 5.0743292907428375 Ga
atom 12.5215135822980681 12.5879829133809782 15.1643299945715420 Ga
atom 12.5393983122203760 12.5694326614199046 10.1027016469946282 Ga
atom 12.6455896881471066 12.7170414836320393 5.1155704232722705 Ga
atom 14.1225411692982359 9.9050224714702590 0.0201244701551071 Ga
atom 14.0195624415538020 9.9284021781157605 10.2157046020926305 Ga
atom 7.7981608508693965 9.9846302997464953 10.1372863892724645 Ga
atom 7.8186220919987619 9.9359889572608751 5.0218048340498260 Ga
atom 9.4189117632382739 7.2114737729511562 15.2063711252450418 Ga
atom 9.3344705060408817 7.2293849942636115 10.0286609442300954 Ga
atom 9.4103910261762049 7.2766824478801615 5.1104422432075918 Ga
atom 10.8559926197773766 4.4696369373872900 15.1746585211773137 Ga
atom 10.9252534224110445 4.4428896929731962 10.1506684116318091 Ga
atom 10.8927386137837434 4.5817379639902516 5.2074916889376732 Ga
atom 12.4864609713092403 1.8807705846381257 15.2265911197561650 Ga
atom 12.5337093128938193 1.8101872120546796 10.1828918378757685 Ga
atom 12.5720993273617268 1.8224410290952486 5.0148355800400228 Ga
atom 12.5123312013332715 7.2544545481020695 5.0086580949552477 Ga
atom 14.1216763323042631 4.4375027048907354 0.0440451198000486 Ga
atom 14.0810225279335182 4.5264823076723939 10.1166804746741317 Ga
atom 14.0372531015614133 4.5374412362959937 5.1504352810356400 Ga
atom 4.6272533810705365 15.2438820331356997 15.1759279657346386 Ga
atom 4.6531595760617055 15.2200832539196860 10.1226359334559692 Ga
atom 7.7671725912991505 9.9202241803126068 15.1838571948312335 Ga
atom 6.2231716522657212 12.7164000723536557 5.0439421940298930 Ga
atom 6.1946875066485161 12.6902861426768983 10.1011923863412552 Ga
atom 6.2816331109201444 12.5576958674893540 15.2269584756100933 Ga
atom 4.7305483328739601 15.3806828705227350 5.1017965988530962 Ga
atom 3.2249242474027189 8.9293757756155152 9.5773948941712881 N
atom 3.0918948652908189 8.9609229521254044 14.7333684224263468 N
atom 1.6439689596261469 11.6150777485707710 4.4942345810370963 N
atom 1.5806535798535530 11.6881427953606796 9.4394045563953028 N
atom 1.6412017073024250 11.7220129904706667 14.5845195210494616 N
atom 0.1231645654803732 14.3598484768274659 4.3947406594680194 N
atom 3.2278259068879058 8.9723032729321499 4.5959105796411297 N
atom 4.7086455523092559 6.3112671023096434 14.6661895548696322 N
atom 4.7783079746382047 6.3383291015758552 9.6123722741586910 N
atom 4.7577857789337399 6.3547689804449208 4.4627246738667861 N
atom 6.2824461316389648 3.5483913671379095 14.6833176453929219 N
atom 6.3003352304044880 3.6025846345806034 9.5137058254792279 N
atom 7.7410144506152703 6.2427936493111309 14.6853167795527622 N
atom 7.8685840737776882 6.2021023797815307 9.4381046703059752 N
atom 7.7228270455333190 6.3687122689704045 4.4789440607743529 N
atom 9.4487485348123048 3.6202959916069863 14.5547718119868481 N
atom 9.4443191512376554 3.6355663110352014 9.6428026726935148 N
atom 9.4343283123545323 3.5983432604310295 4.3906121042181292 N
atom 10.9196336353451304 0.9501609697219818 14.6391625563996648 N
atom 10.9780458782058510 0.8202306285740626 9.4992200875094976 N
atom 10.8870131100790442 0.9826783591089269 4.4997398258861789 N
atom 0.0309441256699551 14.3816211235785296 14.6567273871724151 N
atom 15.6010343077317124 14.4677117724011168 9.5210561247117056 N
atom 3.1574509860235684 3.4932266296496555 9.4733483157077902 N
atom 3.1139291631314148 3.6632585829081128 4.4546215778622100 N
atom 4.6664264950276220 0.7643189743843112 14.6390981246942165 N
atom 4.6245225077770096 0.7999610963034143 9.5357832230946702 N
atom 4.6661989872689107 0.9742208823103257 4.3674820121326352 N
atom 0.0508629623695179 3.6204295696664168 14.5893882094984999 N
atom 0.0388002417207886 3.6441124757161241 9.5110446255344421 N
atom 15.5958264543447847 3.6305137794858409 4.4157013833610392 N
atom 1.5803620296209626 0.8314281901997002 14.6406735545319631 N
atom 1.4347166536253559 0.8523184123012358 9.5462376172014896 N
atom 1.5562551894553498 0.9576771665733251 4.3522312691532239 N
atom 6.2882702812176836 3.5665282383313048 4.3771134661401137 N
atom 7.8118549800484383 0.9041469159120352 14.5758571640520547 N
atom 7.7791340714170421 1.0079981113871546 9.5066019084790359 N
atom 7.8023648510371144 0.8487163886153772 4.3819213686664806 N
atom 15.5459851700162037 9.0013030319496945 14.5090378416057355 N
atom 15.5998190914818515 9.0603196544587430 9.5944830952285454 N
atom 15.5406446555185251 8.9528884470741552 4.4368909400476060 N
atom 1.6509494564016003 6.2808182214273423 14.7216790507088522 N
atom 1.5574779886055881 6.3673798127365728 9.5132660778495985 N
atom 1.6311041604335121 6.2474386660458183 4.4904538392516624 N
atom 3.1276874110534223 3.5222488801966834 14.6756825835262301 N
atom 11.1003586125473834 11.7138695646011630 4.4357400630110684 N
atom 12.5432751565056080 9.1151679998759612 14.7109253725912641 N
atom 12.4642735418336272 9.1130138934392928 9.5193160342675309 N
atom 12.5542029807568820 9.0675858157736595 4.5079690511949870 N
atom 14.0077730737451205 6.3697514266736714 14.7036607596211475 N
atom 13.9595155846265868 6.3971727840128159 9.5714729183606000 N
atom 13.9812463222313657 6.3939573655477835 4.3557941920913423 N
atom 6.2937250866198138 14.4116433713841054 14.5840447615888849 N
atom 6.3126678136550831 14.3676769836032996 9.5306153935228863 N
atom 6.3008425520224147 14.4290758655017850 4.3361601945614057 N
atom 7.8628814822450499 11.6722924925018816 14.6634740882006707 N
atom 7.8311964562662038 11.7732562384751205 9.5331408921315468 N
atom 12.5526080682437549 14.4932354830053285 14.6369752252867631 N
atom 12.5379806362136392 14.4777111667197893 9.5617946365542164 N
atom 12.4894868514021748 14.4535615092341772 4.4758350891983492 N
atom 14.0798103551695970 11.7604877503561767 14.5729915798956409 N
atom 13.9866327130040240 11.6868268201279744 9.5692746012927934 N
atom 14.2117646757359140 11.7256934992641302 4.4734349230436141 N
atom 9.3665191777089252 14.4906757681707585 14.6039936443739951 N
atom 9.4068860606477536 14.4786225163961895 9.6172403830388209 N
atom 9.3055557882387294 14.4270429528714246 4.4441029294740968 N
atom 10.9053374412605883 11.7909310200558028 14.6165826252168518 N
atom 10.9013867299390004 11.7505195458621028 9.4976893510975131 N
atom 14.0253160497110549 0.9299247273457009 9.5191934706451260 N
atom 14.0904326559107140 0.9072557446620462 4.3046803387445731 N
atom 3.1665548089295359 14.3794796860815079 14.6048889884293001 N
atom 3.1279902108923170 14.4279594811125307 9.3888036449727199 N
atom 3.1400013603085850 14.4318305941033103 4.4743451573836994 N
atom 4.7306158281804933 11.6303867416450188 14.6359322441075932 N
atom 4.6495360007359876 11.7227640052052742 9.5489746474205948 N
atom 4.7027645978827088 11.7721337247105939 4.4573725366177959 N
atom 6.1845880031822142 8.9634092771029508 14.6985328477469821 N
atom 6.3145268919219957 9.0886760318616702 9.6479661226038971 N
atom 6.2499866661080583 9.0961645364038457 4.4626366377305988 N
atom 7.9117921386289121 11.7419348857991857 4.3698396096160339 N
atom 9.4024661202398310 9.0276367564814457 14.6163686809107478 N
atom 9.4202165495434222 9.0430281868780167 9.5230540262675252 N
atom 9.4249087549466033 8.9891162080220184 4.4990558008566186 N
atom 10.9917383068962558 6.2952292868671709 14.5537680241827339 N
atom 10.9716048572923448 6.2738168818299460 9.5609131752463252 N
atom 10.9847018382954591 6.3650405290859906 4.5867425671217550 N
atom 12.4924473146360366 3.6500439276942265 14.4819023681567689 N
atom 12.5078157746452181 3.4607208848516544 9.4969752570827524 N
atom 12.3953147532011965 3.6604856596460267 4.4419777223022994 N
atom 14.0344880635603264 0.8913424762209387 14.6174469379236918 N
atom 6.2664969913263171 7.2129058888721724 1.9212862923917577 N
atom 7.9146936940417252 4.5427217484482014 12.0697661712529829 N
atom 7.7645867653970706 4.4696191384329271 6.9930908216569909 N
atom 7.8065457169052772 4.4974006870729752 1.9582582133423974 N
atom 9.4013670668647364 1.8165027212689973 12.0217012999788917 N
atom 9.4394637889183599 1.8257724813362901 6.9888215170981738 N
atom 9.2522915610816945 1.8461239562271632 1.9090787267470726 N
atom 0.0443779052205568 12.5739957042387083 12.0620793765769996 N
atom 15.6185011340039015 12.5806042022107736 7.0517252831631891 N
atom 0.0080803812313304 12.6465391647010481 1.9187877524747379 N
atom 1.5396742806845369 9.7791432705420931 12.0712030638169132 N
atom 1.4941540853270698 9.8363705396803827 6.9919877021977994 N
atom 1.5853266646186253 15.3518444145380286 11.9939982495329680 N
atom 1.5761766642939612 15.2304046623522122 6.9523648195213319 N
atom 1.5860847453619775 15.3801280479234936 1.8761367425643813 N
atom 3.2113251860003875 12.6948791207286646 12.1324633346991781 N
atom 3.1790852299284595 12.5839026577986299 7.0786731700249401 N
atom 3.0838297181124874 12.7110676655936725 1.8731533763479606 N
atom 4.6226876325479447 9.9146086802952063 12.1140789872137553 N
atom 4.7323345731141160 9.9157038772379025 7.0792508758852639 N
atom 4.6725572493677845 9.9097980267085024 1.9907177183431419 N
atom 6.1996436969553530 7.1634542689857481 12.0646538016998832 N
atom 6.1881254273321744 7.2015188394096699 7.1002701399667894 N
atom 15.5484728859786454 7.2373546347935296 6.9921774629181463 N
atom 0.1075858526404445 7.2638234014205736 1.8885810961709750 N
atom 1.6130116508988275 4.3748551927914781 12.1261407648530408 N
atom 1.5581876322335293 4.4603101256277755 6.9072275669084897 N
atom 1.5686167789820602 4.5378162490127645 1.8041371381244278 N
atom 3.0953076507451436 1.6473516618892976 12.0382993979029198 N
atom 3.0831970020195829 1.7526375328796870 6.9566543575766913 N
atom 3.1219543974711570 1.7869610333695030 1.9268416552100078 N
atom 0.0033068177924058 1.8217571760581062 12.1269587806682804 N
atom 0.0209041396795020 1.7537297355269990 7.0235184161974598 N
atom 0.0614608623436879 1.7608433692985901 1.8375528570493882 N
atom 1.5888177301250141 9.9744936409161937 1.9705687319233975 N
atom 3.0552227988048419 7.1387148435080148 12.1608897195981402 N
atom 3.0971628075566491 7.1672009281829645 6.9440999917435828 N
atom 3.1138249541399410 7.2438271308357320 2.0465353078569755 N
atom 4.6709553674043445 4.4293479832435585 12.1148167962350293 N
atom 4.5469581974726303 4.4728866877692708 7.0521322080662472 N
atom 4.7086217752578392 4.5263542828010133 1.9163048255081261 N
atom 6.2422416934275882 1.9032761743100086 12.0890338877360968 N
atom 6.2539661855555044 1.7901796874932778 6.9649487842784703 N
atom 6.2359624509178113 1.7482105470776801 1.9186043820005390 N
atom 15.5550602946866015 7.1586411157417702 12.1823416773162823 N
atom 14.1442245398445365 9.8082150192346482 1.9654827980421747 N
atom 7.7439603034979116 15.3354721202904756 12.0779566964041134 N
atom 7.7427660594800978 15.3926784843619409 7.0269813366118274 N
atom 7.8209859257098602 15.3004656394366005 1.7170680397797100 N
atom 9.3212873182166813 12.6472891661250433 12.0907859525169687 N
atom 9.3975833027844331 12.7723566429424977 6.9715528698956577 N
atom 9.3591463322065689 12.6366413642894884 1.8653370420908029 N
atom 10.9185459513354726 9.9519821217369273 12.1139489729090073 N
atom 10.8747901824518678 9.9385831309757933 7.0789519061152113 N
atom 10.9174460328653655 10.0422064021544948 1.9729008124988492 N
atom 12.4847918922742593 7.3257860466427998 12.1502261224752548 N
atom 12.4838379515474021 7.1930789665995576 6.9480237549953783 N
atom 14.0458221126911571 15.2966888808481816 12.0132109567610712 N
atom 14.0412002879278290 15.2714914751986210 6.8813195915384089 N
atom 14.1289380859751788 15.2475480589738801 1.9562726871490783 N
atom 10.9392241563757082 15.3276797803103495 12.0859879267423675 N
atom 10.9041395915847144 15.4280414844015805 7.0050930407918770 N
atom 10.9003335416396840 15.2793950592229688 1.9338196563545775 N
atom 12.5263648955297526 12.5932023644301676 12.0782917116776254 N
atom 12.4559427396890321 12.6467277901640323 7.0047445777284372 N
atom 12.6416558363229417 12.6750636887919619 1.8834255934657975 N
atom 14.1456753894071721 10.0130106573014999 11.9976394301700680 N
atom 14.0442639120097184 9.9342529292794968 7.0860477525282208 N
atom 7.7922892870595613 10.0341093529498888 7.0249860955860948 N
atom 7.7969233133691187 9.9521847249950603 1.8709740342433303 N
atom 9.3860047291579551 7.2078911414495508 11.9800424395521752 N
atom 9.3508034555115973 7.2265013184874789 7.0394438727226385 N
atom 9.3741148637458238 7.2575789550718017 1.9245551620722399 N
atom 10.9325961720959874 4.5097910031599699 12.0566342993792066 N
atom 10.9218707294492514 4.5716976160621705 7.0207663702465677 N
atom 10.8517441467297466 4.4886743899454649 1.8641346050986527 N
atom 12.4521581966408625 1.8397859429941368 12.0442193763587166 N
atom 12.5862950400749760 1.8633707247466977 6.9092380279139087 N
atom 12.5972735099615392 1.9357780197432688 1.9776357189732647 N
atom 12.4768467836291457 7.2529268441054020 1.9182447928993267 N
atom 14.0785765446264275 4.5929184351930967 12.0185938291410146 N
atom 14.0722612438828456 4.5233726297601029 7.0536138000290709 N
atom 14.0247965190323214 4.5790839589586172 1.8941965480972567 N
atom 4.7225823351838105 15.2049919050385913 12.0434848075690653 N
atom 4.7648806705522473 15.4324371233722282 6.9323125350151340 N
atom 4.6759392011863632 15.2837890291291387 1.9275741369760164 N
atom 6.1728353679219614 12.6830841647719446 12.0753301476561941 N
atom 6.2193393373030377 12.6506147182644604 6.9573997023640999 N
atom 6.2261624556391091 12.6854246659336560 1.9374854550576124 N
atom 7.7683295055773440 9.9162481991167120 12.0684086451807868 N
