#===============================================================================
# Created using the Atomic Simulation Environment (ASE)

# Thu May 11 08:59:51 2023

#=======================================================
lattice_vector 16.0100851999999989 0.0000000000000000 0.0000000000000000 
lattice_vector 0.0000000000000000 16.6381685999439100 0.0000000000000000 
lattice_vector 0.0000000000000000 0.0000000000000000 15.6179127599999905 
atom 0.0857521411013321 14.5987380122573569 2.6921916875083736 Ga
atom 1.5238341768303745 12.1246461852924092 13.1752714856776976 Ga
atom 1.6280592870655111 12.3249017899432936 7.8943519122276786 Ga
atom 1.7619203448629452 11.8271913936910966 2.7873059513834950 Ga
atom 3.1033352827110492 9.2471419927114429 13.0787097213399832 Ga
atom 3.1164638698529914 9.2728837551166698 7.7301929296917837 Ga
atom 3.3039087074970777 9.1863156265111776 2.5915941769719439 Ga
atom 4.7395355525681246 6.4583832695263164 12.8205078833582142 Ga
atom 4.7096411468718271 6.3920490520608926 7.7834985062783906 Ga
atom 4.7722340338104372 6.5858154594857927 2.5877653169780053 Ga
atom 6.3459842834721769 3.7860851558188786 12.8204301749703458 Ga
atom 6.4176651632425958 3.8083180817207150 7.6575652197982356 Ga
atom 8.0224244943172121 6.2376584849831698 12.8766433077375098 Ga
atom 7.9976796680018083 6.3834121694089783 7.8790188706213842 Ga
atom 8.0599209605797064 6.4099166666056897 2.4420411912817723 Ga
atom 9.5488783309271952 3.6478052019942733 12.9944540726190798 Ga
atom 9.6507969726552965 3.7173442405240964 7.7885840550200909 Ga
atom 9.4849774836475014 3.7042595899303308 2.6687309904702015 Ga
atom 11.1220481252778374 0.9011344825939714 13.0997331020862564 Ga
atom 11.1822311056646555 0.9422848551024025 7.8792114249591823 Ga
atom 11.1673201716960087 0.9408353016275244 2.5503480582299658 Ga
atom 0.1320841206760528 14.6584885728727734 13.1343470696484736 Ga
atom 15.8947958675778445 14.9220013192382197 7.8588119191281853 Ga
atom 3.1988542399773348 3.6412500670029977 7.8377275897133520 Ga
atom 3.0850824127291299 3.7170580212953643 2.4882991581723268 Ga
atom 4.7817977580845339 1.1165540529743878 13.0773591724057408 Ga
atom 4.8334532434526167 0.9111360470957953 7.7579880634484848 Ga
atom 4.8135064225769799 0.9181544579023641 2.5777054765283043 Ga
atom 15.9079306510062004 3.8230366899607158 13.1591166831262321 Ga
atom 0.1655986794152619 3.7095231166159013 7.5508820020821332 Ga
atom 0.0067135215853869 3.4819418218355001 2.5991558322560708 Ga
atom 1.4407400756929230 0.9742851398834308 12.9450091994801024 Ga
atom 1.7354047322621842 0.6970409809904499 7.8441508228192838 Ga
atom 1.7437616885387617 0.8242081041936371 2.7411051144153435 Ga
atom 6.4116865442043771 3.6599367421859870 2.4965655301698764 Ga
atom 7.9472302717187802 0.9134918585418311 12.9465764027230232 Ga
atom 7.9978567116239727 0.8841258422861791 7.6021867909673846 Ga
atom 8.1806052480565477 0.7454271294483358 2.6445251818468636 Ga
atom 15.9627814610219190 9.3540106476190434 12.9457678192541490 Ga
atom 0.0532305595700507 9.2842697431966865 7.9600014723607879 Ga
atom 0.0087293730977788 9.2809008907218722 2.4804946039593583 Ga
atom 1.6211741908646400 6.6450739701411372 13.1558467895573408 Ga
atom 1.5939385954622753 6.5954796706452097 7.8269463078333184 Ga
atom 1.2993863844861149 6.5613188370854330 2.4111616692005917 Ga
atom 2.9831988657228963 3.7114608780859175 12.9982683843356490 Ga
atom 11.3078854207599608 12.1176761010243634 2.6174762091036410 Ga
atom 12.6658893912196948 9.2503313778119249 12.9855152297332683 Ga
atom 12.9254516981613410 9.2095595382774018 7.7462085407146732 Ga
atom 12.7497480144501729 9.3137636525023293 2.4955755789643455 Ga
atom 14.3325481312916292 6.4072934581040641 13.0055871641698122 Ga
atom 14.3870655060215427 6.3908167848336994 7.7365665990096950 Ga
atom 14.3771426816260046 6.6157769338467309 2.6774973439090770 Ga
atom 6.4053711603671619 14.8183402807409479 13.0266396666554858 Ga
atom 6.4164023905493544 14.9021812107402223 7.8656771762569866 Ga
atom 6.3836779425594621 14.6616046365720845 2.6993937647060866 Ga
atom 7.8635258074435734 12.0027210034480802 13.2109262837243211 Ga
atom 7.8678526798844608 11.8484845882410745 7.9345851743861529 Ga
atom 12.8928814256817930 14.8130877141552784 13.0603476768335582 Ga
atom 12.8203100106732251 15.0236067635240573 7.9509713933922379 Ga
atom 12.8518447824422637 14.9669468329808240 2.6779118442381518 Ga
atom 14.4184192023236868 12.0365824289343113 13.1465375514817691 Ga
atom 14.4187605583758014 12.0228022534547456 7.8236826571617790 Ga
atom 14.3529830671789504 11.9882970429827900 2.5807729661267120 Ga
atom 9.5893687644486825 14.7731619136021006 13.0848571995897061 Ga
atom 9.6505477036408198 14.7399591759173596 7.9448276120203802 Ga
atom 9.5276266954251696 14.6532123008592308 2.5989481720431562 Ga
atom 11.2446096629143657 12.0785145747466540 12.9480998608637172 Ga
atom 11.1951955899438591 11.8711418013578722 7.6368094666345208 Ga
atom 14.4985155829524324 1.1816772301842919 7.8007221614685820 Ga
atom 14.3746641985538677 0.8258008519397134 2.3862601883642220 Ga
atom 3.3311877068934708 14.7998118511853356 13.2135855707158161 Ga
atom 3.1889409863651017 14.8333774366564395 7.8916126521025971 Ga
atom 3.1643418640616865 14.8815362187904228 2.6001533623198974 Ga
atom 4.8699900333857782 11.8948228709506161 13.0019863494168764 Ga
atom 4.8566375787956355 12.2665122874665240 7.8755159010195648 Ga
atom 4.8763359458800872 11.9580844317923738 2.5024580505090870 Ga
atom 6.5120706516037075 9.0642062989571279 12.9677004217148095 Ga
atom 6.3636606611395594 9.2595931071847648 7.7497386319538313 Ga
atom 6.4657107835361254 9.1946686797384043 2.6680337730636747 Ga
atom 8.0306108458372467 11.9265490640470357 2.5923448783274083 Ga
atom 9.6595267710565054 9.2758765978487538 12.8575378712004493 Ga
atom 9.5650891068390820 9.2478720856706058 7.7297566136957041 Ga
atom 9.6884571923367258 9.3340891646280664 2.5322584399065153 Ga
atom 11.2147297221287978 6.3643882148493924 13.0162684892394793 Ga
atom 11.2995767529709301 6.4643247786725730 7.8588769028869141 Ga
atom 11.1383559835782329 6.4433709193397553 2.6180067991090374 Ga
atom 12.7825531070156977 3.6337532455882009 13.0409490177395995 Ga
atom 12.7365768785630262 3.8135184213610263 7.8572876926099227 Ga
atom 12.8136392139385347 3.6587231708949908 2.6321275022924979 Ga
atom 14.2642938171488787 0.9555748988934218 13.2304635661053442 Ga
atom 6.3319864702982303 7.2358314933153016 5.3060120555929968 Ga
atom 8.1358632131319073 4.5683480759540798 15.3565354306834294 Ga
atom 8.0250578674485258 4.5977743848605463 10.2412145166370046 Ga
atom 7.9166102670999265 4.6407310306112013 5.1079203420589705 Ga
atom 9.4816529752109098 2.0982421436417584 15.5658751866967293 Ga
atom 9.4826889032795840 1.6514845713069195 10.3972386090848108 Ga
atom 9.5701923092358996 1.9714430566260097 5.1055905789074947 Ga
atom 0.0730520596192377 13.0527557120129938 0.1125476049524366 Ga
atom 16.0020878218179483 12.9063948998880615 10.4508481037900989 Ga
atom 0.0071271164392215 12.9465345892278076 5.3818247289634504 Ga
atom 1.8732510649485823 10.1324601049920826 15.5576329537520142 Ga
atom 1.6076950927538849 10.2962630396426196 10.3884661477524745 Ga
atom 1.6837246563615984 15.7191660532554671 15.6105308766188795 Ga
atom 1.6264718690593554 15.7068540645858690 10.5916665163315606 Ga
atom 1.5266427187815821 15.6252837990666027 5.1921263671544775 Ga
atom 3.2168055824796293 12.8832627511363889 0.1446203973440419 Ga
atom 3.2524316530649076 13.0528679889116948 10.5130753466581659 Ga
atom 3.1168979693357444 12.9446309867554916 5.3868584347254655 Ga
atom 4.9049671521897160 10.1847652911051103 15.4697953982854255 Ga
atom 4.8387503810728889 10.0161487519151322 10.4741839816687605 Ga
atom 4.7449188262466278 10.2196236054745562 5.2746102705197417 Ga
atom 6.3313963928257024 7.2852468987680536 15.5672716956454398 Ga
atom 6.4018319381811786 7.3616419552075643 10.4664037693016017 Ga
atom 15.8731919162990653 7.3728995112055182 10.5988182688292039 Ga
atom 15.9194336498992453 7.5620683145885774 5.2096505561397430 Ga
atom 1.6979906760346326 4.6938034754863347 0.1850952109117529 Ga
atom 1.6583699300750825 4.7168148209113143 10.3055481676417013 Ga
atom 1.5163757956175763 4.7415212966929667 5.0226025243235721 Ga
atom 3.2349499884408712 1.8061237414621294 15.5473589744121643 Ga
atom 3.1767816331811107 1.6781631849126657 10.4477824103708219 Ga
atom 3.3379473687949726 1.9972421437174521 5.1777089575511512 Ga
atom 0.2199564791085620 1.9068688339632771 0.0827935542278007 Ga
atom 15.9670571922733018 2.1060546456248637 10.4856686118514695 Ga
atom 0.0887576165627802 1.7262873627870976 5.1093459378258954 Ga
atom 1.6645171279872841 10.2417460769968915 5.2971070665167259 Ga
atom 3.2675219519040195 7.3677284651236610 0.0317033297491339 Ga
atom 3.3189650916208429 7.4845775795153608 10.3671769809764047 Ga
atom 3.1466322826079112 7.4111451386061349 5.0946678611951377 Ga
atom 4.8327367437295816 4.6447788891960515 15.4040431631805781 Ga
atom 4.7098307248282794 4.6034746959329320 10.5568113237479313 Ga
atom 4.7461883351287835 4.6899620923465504 5.0684180957360683 Ga
atom 6.4389021647105560 1.9889890487715753 15.5495625473670778 Ga
atom 6.4020289622460620 2.0208382217385070 10.4069341113744187 Ga
atom 6.3559392702079904 1.6818730171701401 5.0262256824271798 Ga
atom 0.0102125400050944 7.4803366574800432 15.4666510805326798 Ga
atom 14.4498901631455485 10.2021405822293900 5.1649579723376071 Ga
atom 7.9578244777667795 15.7957864484993102 0.1812605907587433 Ga
atom 8.0343388118901053 15.7790344907224149 10.3882364405697061 Ga
atom 8.1329497598003293 15.7651878685414388 5.3481131210559578 Ga
atom 9.7018863675297187 13.1043637857621089 15.6098031955982872 Ga
atom 9.6082423449222816 12.7862733982794587 10.5207973691595402 Ga
atom 9.6336892589874950 12.8505414120766304 5.2883543808133915 Ga
atom 11.1662013243448790 10.2681526795912230 15.4979581707597749 Ga
atom 11.1536955129226030 10.0547973926339136 10.3331185380646673 Ga
atom 11.2789792778647335 10.2153128091819223 5.0937525660063576 Ga
atom 12.8525040348293622 7.1819193252432374 15.4553971815136961 Ga
atom 12.6789802840567791 7.1459410756214661 10.3373747418044779 Ga
atom 14.6042218107878075 15.7870086925606206 0.0417362251518310 Ga
atom 14.4116261363280138 15.8666054633806990 10.5624369228845065 Ga
atom 14.3677799189715678 15.6761108642434639 5.1696421187882020 Ga
atom 11.2845554054085522 15.7918560311121841 0.0447579245473062 Ga
atom 11.1689443168475364 15.6027843602770950 10.4225028944712719 Ga
atom 11.2532538151113570 15.6834727615235341 5.2439420714435601 Ga
atom 12.9314673522030255 13.0684109491604268 0.0267249342802499 Ga
atom 12.7841962456432690 12.9763814601537995 10.2751654258305969 Ga
atom 12.9768644282155492 12.9087416157053738 5.2700213923418096 Ga
atom 14.4215445125272677 10.1583559909109287 15.4696101396081858 Ga
atom 14.3642996595903032 10.2265820292337022 10.4821773133315634 Ga
atom 7.9073387576426679 10.0948244538463801 10.3890357054873927 Ga
atom 8.1168241396709284 10.1335848285248158 5.1815565495422122 Ga
atom 9.4517166050941306 7.4449021976432146 15.4759135198859425 Ga
atom 9.6500761295328719 7.3105369803211540 10.1822116628135397 Ga
atom 9.5355329806894034 7.3552861943875074 5.2794471645574772 Ga
atom 11.2074234768429921 4.6461146908624738 0.0252250942661244 Ga
atom 11.1355337392052469 4.3687765423955298 10.5087502899787015 Ga
atom 11.2707775208179282 4.6779918142745274 5.0271988683855975 Ga
atom 12.7222236864723719 1.7782929574796202 0.1185836107118586 Ga
atom 12.6655500215350063 1.7498710920487648 10.3435026620027148 Ga
atom 12.8421173223572858 1.7355357523274051 5.2029733646170833 Ga
atom 12.7694141444781621 7.4878883995475478 5.1721062805338613 Ga
atom 14.4651211916892741 4.5438954030329946 0.0885154168601032 Ga
atom 14.3862549886695366 4.6156539888263781 10.4146994049506265 Ga
atom 14.3170166153764331 4.6508082676388280 5.0950807494980754 Ga
atom 4.9586509224192650 15.7158927851425432 0.0049442691058400 Ga
atom 4.7857903778349513 15.7945268241915056 10.6205792050543675 Ga
atom 7.9664332807028444 10.1161637181905970 0.0233669444720728 Ga
atom 6.3738296550726465 12.8331701149011312 5.2698019263937095 Ga
atom 6.3584599864864044 12.9284997373826833 10.4291698286181482 Ga
atom 6.4334244738238571 12.8520593967877836 0.0520772522606591 Ga
atom 4.7331457101199907 15.6323005046157899 5.1865301158022277 Ga
atom 3.2905545997956742 9.2378974477785416 9.6368379682171064 N
atom 3.3208018628356313 9.2289537837569924 14.8168268452368537 N
atom 1.6263293713245308 11.9236733574919516 4.7513225509967016 N
atom 1.5537241671667537 12.0503659460161714 9.8055519589153128 N
atom 1.6001927754880594 12.0926239163303304 15.0166328395683148 N
atom 0.0391793527744500 14.7418965910898532 4.6456615302252358 N
atom 3.2698376164848799 9.2852886710293063 4.4990166104255707 N
atom 4.8032893414394584 6.5799456357626642 14.8822543217769105 N
atom 4.8351665583863639 6.3522992201182724 9.7977860616335288 N
atom 4.7539612862315446 6.3981857648330642 4.5366803792190789 N
atom 6.5175405705051759 3.7784378032346164 14.7209907303453882 N
atom 6.4160624458257933 3.6934328117220354 9.6748748354105629 N
atom 8.0062867462794625 6.3649961438675078 14.7341813098620413 N
atom 7.9330951854139329 6.3868225138208752 9.7486398319749323 N
atom 7.9311642470443022 6.4389887247345587 4.5302944570121779 N
atom 9.6732592061668345 3.7626828495788867 14.8072241817030221 N
atom 9.4848311146015511 3.5864824615740818 9.6422046374624859 N
atom 9.6233671743632652 3.8375887492310765 4.5742504346818089 N
atom 11.0319540085266468 1.0890525488949074 15.1110287456208283 N
atom 11.0491443378411507 0.8800661141772678 9.8031949848090623 N
atom 11.2188343972029561 1.0670019044197925 4.5639499772122925 N
atom 0.1378027274604880 14.8913240731312282 15.1081850545264835 N
atom 0.0022402210664831 14.8822592758732259 9.8528170179110131 N
atom 3.3053154406007650 3.6752623403547537 9.7350338035758988 N
atom 3.1529366094851583 3.7852817865722721 4.4239600686445240 N
atom 4.8313628402200930 0.9685503697943870 15.0368564929986075 N
atom 4.8147758785251504 0.9181258906606988 9.8765367595586344 N
atom 4.8014132804475818 0.7015171016352648 4.5461780477021225 N
atom 0.1149832297417629 3.7952251514481552 15.1405305478121832 N
atom 16.0060103849452631 3.7188169270422371 9.6368644101533558 N
atom 15.9993781638917518 3.7452807256322069 4.5801684432303702 N
atom 1.5939249363184789 0.9049952276579055 14.9205164895563946 N
atom 1.4796336094395814 0.8209227358764291 9.8962740841229895 N
atom 1.7924589790522911 0.9972733952565119 4.5897048030652288 N
atom 6.3260580119525125 3.6422062036363485 4.4656862773870056 N
atom 7.9848415053325956 1.1283220912770922 14.9261113019039922 N
atom 7.8932598055713026 0.8735370679321895 9.6003605955433020 N
atom 7.9672580004035467 0.9613452610821980 4.5550405267116600 N
atom 0.0817554396738324 9.2689377494387006 14.9244754342238455 N
atom 0.1207847532279853 9.2615242321087745 9.8793824593859672 N
atom 0.1852369472439135 9.3812849999178152 4.4876665687185362 N
atom 1.6489782400296726 6.5264126854936917 15.1522812009527978 N
atom 1.5486956731397867 6.4809698019823498 9.8053150097499717 N
atom 1.4138958929459262 6.4529922541415097 4.4897592079763040 N
atom 3.2066814426250598 3.6014226875558966 14.9107964934974202 N
atom 11.4028793202239047 12.0910958583423138 4.6111942719305947 N
atom 12.7694915348698128 9.2042185914135999 14.9761576995164152 N
atom 12.7719795987528499 9.1397017674176997 9.8239119459450865 N
atom 12.8114954292390522 9.2615818255762843 4.4310132742618329 N
atom 14.6229548900810702 6.3669479993729148 15.0561974662288502 N
atom 14.4703041537374020 6.4109298056851927 9.6198654694023666 N
atom 14.3346263902816755 6.5746870367113122 4.5919796348153872 N
atom 6.4278796099305229 14.7403384400464379 14.9866968460200223 N
atom 6.4019418797268299 14.7453455509001383 9.8335579979848387 N
atom 6.4560715237591442 14.7526915290949532 4.5721981894714716 N
atom 8.1508353497531765 12.0931075334710769 15.0894953692458405 N
atom 7.8720851676315506 11.9734287928666294 9.8385977983678998 N
atom 12.8297479563467451 14.8203677268042195 14.9495303116631515 N
atom 12.7884991026854635 14.8040561660144316 9.8431161586167306 N
atom 12.7503098268449389 14.8239276956920794 4.6086259536736289 N
atom 14.5739137810799484 12.0803085236103964 15.0904854250746752 N
atom 14.4497888844130049 11.9729940061583306 9.8984734344264371 N
atom 14.5610886547543750 12.0211153587228239 4.6561034370382890 N
atom 9.6051060496613072 14.8160429184574429 15.0095260851166703 N
atom 9.6016032595967751 14.6557139365093825 9.9558795663747173 N
atom 9.5454152782573995 14.6943838775307345 4.6109486653980909 N
atom 11.2927201416107348 11.9800354761155603 14.8795522892310110 N
atom 11.2208457592279345 11.8743401913749533 9.6431968099836016 N
atom 14.3307022744959784 1.0428265089811426 9.7093630684972254 N
atom 14.5757273364984599 0.9345473849942478 4.2786238857693446 N
atom 3.2007600223404942 14.6866445404097572 15.1123528999265719 N
atom 3.2841059311056462 14.7996294067336791 9.9320542036799111 N
atom 3.0558180266253769 14.7877314231964920 4.5603641917354834 N
atom 4.8327719822160882 11.9877236432103782 14.9288903892057760 N
atom 4.8217459068023096 12.0202710268051014 9.9039248184154314 N
atom 4.7160130222344732 12.0493882181888257 4.5649004861345857 N
atom 6.5485550675091648 9.0918432417789088 15.0162197812145752 N
atom 6.3968456700161820 9.2481612464252230 9.7468080086114171 N
atom 6.2812868226632022 9.1518038357252323 4.6469066014720806 N
atom 8.1230375617259689 11.8824171070870293 4.5414988933125908 N
atom 9.5084861331341806 9.2771207741411139 14.8831381671335343 N
atom 9.5146819317885480 9.4573006996158764 9.6567321667084585 N
atom 9.6182956974773131 9.1696466519494102 4.4753782925446615 N
atom 11.2155377086585712 6.4010633355380406 14.8652167256512193 N
atom 11.1770100910399055 6.3321795667096072 9.6070072146700092 N
atom 11.1371636893722386 6.6380746811466524 4.5826059212529398 N
atom 12.9823981210873036 3.5600960004030973 15.0371159643387866 N
atom 12.6809028302220081 3.5315982083895907 9.7532972003268270 N
atom 12.8433379360335440 3.5633038424639292 4.6999946678056146 N
atom 14.4722035455111104 1.0312340865799559 15.1307210312791316 N
atom 6.4778492429193282 7.4069210368468346 1.9466830483943631 N
atom 7.9888601578877241 4.4213775081760502 12.2344244005745750 N
atom 8.0491890020691024 4.6047804393990877 7.0442932592708303 N
atom 8.0738612227710806 4.5742471854579847 1.7344198830149766 N
atom 9.4930500609767154 1.8182606259600478 12.3952945568470945 N
atom 9.5191878304885176 1.8245325640906735 7.1418814725469542 N
atom 9.5992214582657276 1.9449608914186158 1.9838792418766187 N
atom 15.9931604847907600 12.9088738831418599 12.3688591485679176 N
atom 15.9982077747891953 13.0124635302089455 7.3561433766829536 N
atom 0.1656801917530409 12.7320466521791431 2.1040493594894190 N
atom 1.6098569981107944 10.0801771811086915 12.3566433449072690 N
atom 1.6218757462161977 10.4387987877902653 7.2421920865479930 N
atom 1.6920406584844903 15.6305376943566152 12.4648249845197743 N
atom 1.5218957719900452 15.6742542569106078 7.2596798205895565 N
atom 1.6177527823106752 15.6687889028979495 1.9873285756362413 N
atom 3.2138311353533964 13.0098188760981319 12.3934823616231053 N
atom 3.2182501260584715 13.0646239570989113 7.2454456359024633 N
atom 3.3110615469223266 12.8373612476791230 2.1429288493705876 N
atom 4.8381815932841281 9.9829163747790552 12.5126252375965894 N
atom 4.7250774964622959 10.2805261391117693 7.2557965878117425 N
atom 4.8813225336339219 10.1485697040987422 1.7795697654063622 N
atom 6.4119366282533869 7.1466454764178255 12.2600548132145732 N
atom 6.3334072115092148 7.3217011975091735 7.3077676291756966 N
atom 0.1238160718900676 7.4574482814606693 7.1811509954453561 N
atom 15.8943876450174493 7.4887537747454056 1.8978340985573019 N
atom 1.4310290094363143 4.8333899278148573 12.4311941518746814 N
atom 1.6821456073034371 4.7651216998813206 7.0983503183451502 N
atom 1.5163754047838593 4.5826842406800274 2.0152071142528438 N
atom 3.0017633577581733 1.8940346394017351 12.4064381164901754 N
atom 3.1694747696990042 1.8473590722469442 7.3007774997051138 N
atom 3.2731377432892015 1.7152893063503301 1.9134725426583701 N
atom 15.8747956492200419 1.9908341081299477 12.4136748487238400 N
atom 0.1518345197652385 1.8209960552370028 7.1367039236323766 N
atom 0.1883428279699232 1.7221552777580391 2.0810183870471830 N
atom 1.7894917170998801 10.0318752747320641 1.9081846571182037 N
atom 3.2416109787787177 7.3168943847884513 12.4683243124133796 N
atom 3.1482217598882212 7.4563666249635032 6.9759923242548600 N
atom 3.0110144814831705 7.1952776994693526 2.0240147421516594 N
atom 4.7755497039525014 4.5246173311211741 12.4382141162085578 N
atom 4.7200270975505907 4.7657139956748873 6.9080568855481159 N
atom 4.7349375544925056 4.6307756353108491 1.8371776875117944 N
atom 6.3827497399652726 1.8289638995848971 12.2822393119464923 N
atom 6.4576665731261080 1.7797222064291809 6.9894081170630926 N
atom 6.5108614062757271 1.7253739959119945 1.9181392387105805 N
atom 15.9526890770163643 7.4620438039742787 12.5150155153990461 N
atom 14.4355005666888445 10.2441139594315853 1.8416310099484576 N
atom 7.9934602048929015 15.6663103289244674 12.3898898960996622 N
atom 7.9523657083509223 15.6210404923473014 7.2565687429193826 N
atom 7.8706881000052178 15.5755716321390114 2.2020892830550771 N
atom 9.3811767001790116 12.8730716956669369 12.4517725600473561 N
atom 9.6094875573997740 12.7935594303404407 7.2857477701615849 N
atom 9.7171764694526157 12.8501928823101785 1.8948591259141379 N
atom 11.2829030204012284 10.2234876146308782 12.3308589740171755 N
atom 11.1755112312822646 10.1043749578721567 7.0095614433970601 N
atom 11.0983623701076599 10.2259678328743693 1.8820933149691308 N
atom 12.7591868641658177 7.4248121789138937 12.1833322385057929 N
atom 12.7870462467619657 7.3789900798429509 7.1079775029576755 N
atom 14.6292487395938515 15.7737185353478697 12.4808350912262451 N
atom 14.3320092629157010 15.9477042124002537 7.2306372932623555 N
atom 14.4186469185070330 15.5274604139896635 1.9865296376027171 N
atom 11.1350766601699114 15.6252233454188794 12.4275139637402159 N
atom 11.1693957290432540 15.6751813430400322 7.1962511620036116 N
atom 11.2282400663615594 15.7148604519088639 1.9409837093662488 N
atom 12.9332405983883429 13.0275433379979333 12.3592655424334676 N
atom 12.9292677054384662 13.0664467952874865 7.4114831001625623 N
atom 12.8076247387122208 13.1105067992466751 1.9622577500188905 N
atom 14.3353184729336345 10.1828233513713453 12.3905452634708766 N
atom 14.4398023991483466 10.1275773038281649 7.1702347548182992 N
atom 7.9355178435635914 10.2082654672997020 7.1798404450249089 N
atom 7.9816222245355934 10.1483887485119393 1.9581342826634944 N
atom 9.6117298147004568 7.3150323049266808 12.2876747425412134 N
atom 9.5742302922313325 7.2805906788973154 7.3260554338665020 N
atom 9.5736129031054720 7.4092660664123802 1.8347133632580044 N
atom 11.1757290354588807 4.5550124376930148 12.4189669512489793 N
atom 11.1475496043962217 4.5925050589677650 7.0473322512125733 N
atom 11.0701342908009135 4.5643268576692186 1.9029736854275516 N
atom 12.7225532578890146 1.7893615566432419 12.4385209017254184 N
atom 12.7677039980052758 1.9634602977041538 7.2359188957301184 N
atom 12.8471879092726979 1.8255749387590883 1.8109463101195133 N
atom 12.7643688278245531 7.5004240999343743 1.9029982579307216 N
atom 14.3120334533299864 4.5767698690131828 12.3475213443136358 N
atom 14.3694065980970809 4.5887054712565725 7.1064873033872580 N
atom 14.5256221427985732 4.6833628272853201 2.0546300631706762 N
atom 4.8207540565298697 15.8285615646476554 12.6005880684964158 N
atom 4.6301923732653201 15.6913639039863924 7.2753750553054379 N
atom 4.8619255654170379 15.6126070670132737 1.9938399471231159 N
atom 6.2503780328352772 12.9406732495514287 12.4531278311462312 N
atom 6.3504986857619139 12.9881493566538868 7.2340795765643691 N
atom 6.4330137336333744 12.9781265668754866 2.0319548389493676 N
atom 7.9161219820201518 10.2710132387875603 12.4466918965188000 N
