#===============================================================================
# Created using the Atomic Simulation Environment (ASE)

# Thu May 11 09:00:37 2023

#=======================================================
lattice_vector 16.5841519999999996 0.0000000000000000 0.0000000000000000 
lattice_vector 0.0000000000000000 17.2347563186669994 0.0000000000000000 
lattice_vector 0.0000000000000000 0.0000000000000000 16.1779175999999900 
atom 16.5609254849723833 15.3883686736417165 2.7691256868514547 Ga
atom 1.6985888643290983 12.4085275473546268 13.4765775456731784 Ga
atom 1.7410294082298692 12.4686728910398692 8.0188679088955421 Ga
atom 1.5638392185448333 12.5109301925642828 2.7190298470065337 Ga
atom 3.3142421272559552 9.5716195187248854 13.5176568053213266 Ga
atom 3.3248539238993469 9.5862992769045796 8.0534265105861760 Ga
atom 3.3531730249262632 9.5255612136413212 2.6162420955088272 Ga
atom 5.0074648587577668 6.6497203560626641 13.4057864492675964 Ga
atom 4.9691153581278282 6.7450833411288267 8.0696320436465854 Ga
atom 5.0432080263513823 6.6662682191402380 2.6463625377173718 Ga
atom 6.6826015125288301 3.7725424219531551 13.5085429773904817 Ga
atom 6.5930377900204356 3.8137148174309763 7.9900230895442101 Ga
atom 8.3503307003952152 6.6569298404924435 13.4995643856758765 Ga
atom 8.2645612107658337 6.6133871301806844 8.0328344888776719 Ga
atom 8.2862683824826036 6.7628638894502693 2.6117584932263891 Ga
atom 9.9805385534973254 3.7509990778265943 13.4194802170813858 Ga
atom 10.0364280180751635 3.8234849990315940 8.0048696783658553 Ga
atom 10.0648468447423429 3.8337200019558373 2.6381883924552056 Ga
atom 11.5059641991932224 0.9495313303125562 13.5011324366598089 Ga
atom 11.6668034581505804 0.9425765523676741 8.1338534026621474 Ga
atom 11.5114151461959615 0.9939187539112470 2.7147700843794662 Ga
atom 0.0404220776639461 15.3947067911222355 13.5129945690308020 Ga
atom 16.5434215750314628 15.3728262290421718 8.1031811858743055 Ga
atom 3.3424300734068515 3.8609941843357629 8.0380155414437322 Ga
atom 3.3087377738343888 3.8541932876697946 2.7137186122917596 Ga
atom 4.9029155306286452 0.9892938665176954 13.4225776517754696 Ga
atom 4.9842236439353380 0.8737426787762327 8.0351857713039205 Ga
atom 4.9088185315582855 0.9805616380514438 2.6565712292178971 Ga
atom 0.0628898176061607 3.7824464582948871 13.4997463520536556 Ga
atom 16.5318100306013491 3.9017635070916539 8.0747399416889092 Ga
atom 0.0305453581061687 3.9393066668087173 2.6753587179380434 Ga
atom 1.7118782415666496 1.0324663919829549 13.4731044756052238 Ga
atom 1.6912079159856115 1.0024758732810344 8.1202250758357852 Ga
atom 1.5958625851127706 0.9482034018747106 2.7250305598157500 Ga
atom 6.6830559208359812 3.8463290272068846 2.7718486090375727 Ga
atom 8.1736809581896281 1.0437342021359350 13.4669281940470889 Ga
atom 8.3225242329977576 0.9854200601496008 8.1240289304238686 Ga
atom 8.2702699401651962 0.9517232280462333 2.7768540041338805 Ga
atom 16.4780522125332318 9.4866486228783558 13.5377077684093603 Ga
atom 16.5492309719212365 9.5323573539504114 8.0856909528686316 Ga
atom 0.0379496940733921 9.6261476867499258 2.7284078806726053 Ga
atom 1.7076946560967472 6.7445023095052141 13.4273956847881664 Ga
atom 1.6416078391708022 6.7277263932231506 8.1291401607896141 Ga
atom 1.6438668193966079 6.6674112736762901 2.6807385272258761 Ga
atom 3.3266110983535433 3.8798396548566623 13.4818919672210953 Ga
atom 11.5660488942850588 12.4612966392578794 2.7209249077460380 Ga
atom 13.2797200618789830 9.6086365597027292 13.4635906964760395 Ga
atom 13.2205576786786843 9.6484758872496119 8.0720839454196973 Ga
atom 13.2871061215584501 9.5882539387867940 2.6643223471435786 Ga
atom 14.9115340916217338 6.6844908037353088 13.5019658160474236 Ga
atom 14.9614406409795340 6.7197170654811691 8.0893537826034390 Ga
atom 14.9181305046929644 6.7370285683675784 2.7828238167923924 Ga
atom 6.5564442331820398 15.2504123377530281 13.5071649775339591 Ga
atom 6.6388793754189477 15.3249794608510630 8.0814911166813097 Ga
atom 6.6113423749975029 15.3596654654379030 2.6828628991265990 Ga
atom 8.3580135672324278 12.4489755673130151 13.5504375629428004 Ga
atom 8.3228611315941876 12.5003191068837900 8.1203766053456814 Ga
atom 13.2966094433154041 15.4112624452346534 13.5113396933929142 Ga
atom 13.1743807479031787 15.3696337892220782 8.1226175503061206 Ga
atom 13.2539900961043564 15.3449582976872225 2.7237566548943568 Ga
atom 14.9820888504596912 12.4636440101888990 13.5174342171278621 Ga
atom 14.9142984499786593 12.5730041020984054 8.1261845498522334 Ga
atom 14.9699194334255665 12.5003213641704960 2.6207098593782674 Ga
atom 9.8856154683642448 15.3249824520445337 13.4914608236959062 Ga
atom 9.8585298820960681 15.3004158346098649 8.1563538711498342 Ga
atom 9.9413056254612453 15.2676112970128290 2.6601638964756180 Ga
atom 11.6553838343054021 12.4065681213671333 13.4940216527146468 Ga
atom 11.5949674714372879 12.4762970747545729 8.1134526405588758 Ga
atom 14.9375121094638654 0.9957948663816221 8.1227010515785132 Ga
atom 14.8888755551128487 0.9794419637263339 2.7103635774946766 Ga
atom 3.2606226012556658 15.2461665796234609 13.4011808388855886 Ga
atom 3.2704536833633435 15.3513006688022884 8.0797682507614184 Ga
atom 3.3407011949445740 15.2575362780668318 2.6417490281126388 Ga
atom 5.0008935138316488 12.3907903870275824 13.5238856304035568 Ga
atom 5.0670752756564994 12.4495479353393339 7.9379055904696072 Ga
atom 4.9885881231515228 12.4400011340215091 2.6523226522939374 Ga
atom 6.7563496557361393 9.5090831031786163 13.4774038116888271 Ga
atom 6.6267356682986414 9.5665961750807238 8.0844801503022996 Ga
atom 6.6947667900538042 9.6034560623106522 2.7672983106787128 Ga
atom 8.3403619734353107 12.5524164124004969 2.7485975341708198 Ga
atom 10.0172010855370335 9.5624390514524862 13.4399930451894516 Ga
atom 9.8975478187718267 9.4914260778542712 8.0964153925943485 Ga
atom 9.9068387811087035 9.6502500598182213 2.7058707483597053 Ga
atom 11.6665888323721330 6.6934969950740033 13.5183760589730912 Ga
atom 11.6437364363857991 6.6564937671123889 8.0650066320017473 Ga
atom 11.6351105100289764 6.7698597108051848 2.7375617721478349 Ga
atom 13.2523704287988640 3.8631302998777253 13.5028560980483920 Ga
atom 13.3395291303928225 3.8404967087738866 8.0621738643125305 Ga
atom 13.3357852110093500 3.9046857854848578 2.7585310636973577 Ga
atom 14.8748314708432385 0.9244091399744157 13.5013456971747807 Ga
atom 6.6020498842157567 7.6320047117948278 5.4055435504480780 Ga
atom 8.3204425743106345 4.8611149007930949 0.0724138057735035 Ga
atom 8.3543253511643769 4.7440625817835720 10.7163257089911870 Ga
atom 8.3398835761274164 4.8403964376253441 5.3476388973023159 Ga
atom 10.0266415188285389 1.8975845532078703 16.1777546196723350 Ga
atom 9.9306613117436520 1.8946918835267688 10.7393463585955278 Ga
atom 9.9608890802415981 1.8989773781420445 5.4499547441889966 Ga
atom 16.5734688238327017 13.4092280613373980 16.1258384159770998 Ga
atom 0.0308448015326238 13.3638688363700169 10.8427983681114455 Ga
atom 16.5404316884823608 13.3644081613746621 5.4303625406017870 Ga
atom 1.6259521101566767 10.5769307564176653 16.1539005719597775 Ga
atom 1.6969632905092122 10.4436512188496575 10.7830261305267303 Ga
atom 1.6308426497342734 16.3396333613396294 0.0022856821984460 Ga
atom 1.6351401205970704 16.2620600731117229 10.7389659999184541 Ga
atom 1.5667177158399690 16.2819450745854901 5.3495531403509524 Ga
atom 3.2762867575298480 13.3577376861605366 0.0027900428123517 Ga
atom 3.3410360576927278 13.2980475873186315 10.7651220530632621 Ga
atom 3.2263039796492317 13.3665400521933808 5.3764160540563344 Ga
atom 4.9816504062231273 10.4089591104194454 16.1508999152677788 Ga
atom 4.9917815957515481 10.4420932001613238 10.8101295059520144 Ga
atom 5.0964195474209113 10.5002413448228165 5.2478957982569669 Ga
atom 6.6573211973112691 7.7166719561201145 16.1763031346541055 Ga
atom 6.7243773750465756 7.5797949986835480 10.7651862654083814 Ga
atom 16.5672718468332008 7.7109770002052578 10.8166246099112104 Ga
atom 16.4968025646797081 7.5925792544025228 5.4055492030663599 Ga
atom 1.6445276264998303 4.8071654519932094 16.1470636052653695 Ga
atom 1.6401610140679874 4.7864312094429708 10.7928391267841146 Ga
atom 1.7467804254988808 4.8504618439406402 5.4766597014797407 Ga
atom 3.2243049297954367 1.9562661711141076 16.1485892660938752 Ga
atom 3.3026539897119056 1.9501626764607387 10.6661180839974001 Ga
atom 3.2862387807928815 1.8793846333130106 5.3110514699147524 Ga
atom 16.5826675597435447 1.9829989114417224 16.1740193412909576 Ga
atom 0.0232419161904302 1.9081804780304306 10.7585786528877456 Ga
atom 16.5697025113090959 1.9479392779918550 5.4381507961969309 Ga
atom 1.7434421481632250 10.4014105174781850 5.4090341751118114 Ga
atom 3.3759554945619104 7.5750832510568493 16.0603085668466470 Ga
atom 3.3772290996385794 7.6392650344667059 10.8284188487875053 Ga
atom 3.4001699502308580 7.6859626233517737 5.3274163933156435 Ga
atom 5.0177916470900961 4.7922862569802236 16.1440193507991694 Ga
atom 5.0095882399002631 4.7458876081924259 10.8021142913383610 Ga
atom 4.9616280096511058 4.7011703834964544 5.3343503040155298 Ga
atom 6.5608027414940375 1.9258766265063485 0.0160329582909153 Ga
atom 6.6664895980509868 1.9146148547510295 10.7910594723818694 Ga
atom 6.5882600695122413 1.8903424752180094 5.3631128697997008 Ga
atom 16.5502480498068216 7.7313344105529316 16.1634601818647319 Ga
atom 14.9210921214565904 10.5839968867970793 5.3921935585540188 Ga
atom 8.2386176263596873 16.3179973534804432 0.0029995723046224 Ga
atom 8.3789239744071669 16.1643875576774363 10.8529657535591877 Ga
atom 8.2687731299977294 16.2829732448178603 5.4079791331295803 Ga
atom 9.8779676743265235 13.3793616316169750 16.0801365076444895 Ga
atom 9.9124297929181520 13.2777436361839705 10.7984395321852329 Ga
atom 9.9652982718989431 13.4208609749685159 5.4184423720881814 Ga
atom 11.4957829042889248 10.5563498298763214 0.0637946344997693 Ga
atom 11.5941033298141463 10.5001575739798874 10.7566738121887226 Ga
atom 11.5812552559861697 10.5666194215098113 5.3851962240973981 Ga
atom 13.2294197515469278 7.6726920062271384 0.0370021722537336 Ga
atom 13.2908789598773787 7.6844077449977055 10.7900647695658876 Ga
atom 14.9391873526985890 16.4068453857035088 0.0521175687571016 Ga
atom 14.8885155379566161 16.2502488131241911 10.8355136559263201 Ga
atom 14.8021161206145315 16.2792063116374841 5.4470467600159971 Ga
atom 11.6151543301786209 16.2728112504688340 0.0414931493911733 Ga
atom 11.6077122405845632 16.2654126309766447 10.8604461634329912 Ga
atom 11.5463709971475641 16.2845443665352576 5.3631189438875184 Ga
atom 13.2051088869266522 13.4425700046435246 0.1096668863153277 Ga
atom 13.2165919579094275 13.4388695610848554 10.8711751583576550 Ga
atom 13.2706578420693155 13.3825657649003862 5.4391308828755642 Ga
atom 14.9119802162358397 10.6137099153392676 16.1745891731804221 Ga
atom 14.8930468608523778 10.5344162138052866 10.7752742385050020 Ga
atom 8.2956705861441371 10.3819580964865548 10.7520927070878667 Ga
atom 8.3343342061856411 10.5634528171862812 5.4837833328376400 Ga
atom 10.0016981062643886 7.6100233941649451 0.0233202950830316 Ga
atom 10.0147294402125588 7.4461081654514052 10.7897218761264870 Ga
atom 9.9371661759318890 7.7340645950636739 5.3994464784976204 Ga
atom 11.5957372800537115 4.8926766859159407 16.1711773385910043 Ga
atom 11.6791790066961543 4.7546072498090153 10.7493244122878373 Ga
atom 11.6129969139962448 4.7947826690844293 5.3562722836011849 Ga
atom 13.2788654125197905 1.9519135373255287 0.0229267015725383 Ga
atom 13.3027379464619600 1.8324575609491134 10.8318131173907588 Ga
atom 13.2483318015883995 1.9173159417430539 5.3272384481204167 Ga
atom 13.2168135934712705 7.6544404688122283 5.3936382818968864 Ga
atom 14.9031865042272411 4.7521778651598368 0.0045417151662952 Ga
atom 14.9821169165882981 4.8399299829037137 10.7752158027236611 Ga
atom 14.8881056482248741 4.7316725588699207 5.4527163138095878 Ga
atom 4.8696712748920117 16.2792344715409953 16.1255946347678787 Ga
atom 4.9469877331076741 16.2114895913885420 10.7634017399872199 Ga
atom 8.2685018672827741 10.5874683017331623 0.0299405411821899 Ga
atom 6.6467456680465578 13.3939095405814204 5.3902805412523263 Ga
atom 6.5841087050312179 13.3291411776383555 10.7790660166259062 Ga
atom 6.6470427600505460 13.4749676990952878 0.0830792726265447 Ga
atom 4.8973634851140488 16.2182223090940525 5.3764571808249499 Ga
atom 3.3513540087951443 9.5011406816492876 10.1711359141615851 N
atom 3.2773903223041145 9.5426150789517816 15.4838508799671644 N
atom 1.5966967120352833 12.3936327062244924 4.6759550825315710 N
atom 1.6585839210045865 12.3507428037689237 10.1272772688991264 N
atom 1.6353964962645606 12.4377945113858157 15.4103182806703476 N
atom 16.4740408704877339 15.3429749330352863 4.7636273812547447 N
atom 3.3946443989815296 9.5992458616554668 4.5808721587268701 N
atom 5.0684341794414891 6.7483242846400380 15.4370399971899381 N
atom 5.0421316923160493 6.7038163900982992 10.1243725755007734 N
atom 5.0121246309566612 6.6879178903090457 4.7322100970886023 N
atom 6.6760543613391246 3.8470996237444504 15.4880382802816055 N
atom 6.7200355144994042 3.8003194369433060 10.0457214951969362 N
atom 8.3104773481995462 6.6796427868787855 15.5481463645911440 N
atom 8.3518293443904490 6.6133413116273729 10.0511200915431100 N
atom 8.2840991591342714 6.7841898743431939 4.6073498331434033 N
atom 9.8521400213415653 3.8442223011366203 15.4041382850365274 N
atom 10.0198679478393604 3.8218907612062494 10.1160500544919287 N
atom 9.9635644479702332 3.8077648498890007 4.6827481049599289 N
atom 11.5776757505782957 0.9328602935079779 15.4962288379555932 N
atom 11.5464338308068655 0.9652884180038107 10.1068339032234427 N
atom 11.4975026746869968 0.9901083490949943 4.7461459614193098 N
atom 16.5715205820188345 15.3532326815434850 15.5488367397173040 N
atom 16.5495057206111760 15.2218896517855082 10.1071171533193471 N
atom 3.2943517448585031 3.8863979110311724 10.1169976295101467 N
atom 3.3635894071281149 3.7677065334859217 4.6999103655918981 N
atom 4.8846203418317602 0.9398547887306045 15.4596250172126624 N
atom 5.0334055006509244 0.9490577428936108 10.0853991499062836 N
atom 5.0808382856840346 0.9192932045616978 4.7693946647986101 N
atom 16.5632145493056484 3.8548658038495156 15.6230854356025350 N
atom 16.5526552825569055 3.7956966400562400 10.0810146415267088 N
atom 16.5666873157564396 3.9128123005870514 4.7829250837965924 N
atom 1.6755045397767308 1.0504168979608079 15.4400196599614983 N
atom 1.6933289704176868 0.9340605474918108 10.1047306141657280 N
atom 1.5739190907311988 1.0378636623298274 4.6620814240799167 N
atom 6.6495482624880085 3.7738429464008028 4.7824951983080570 N
atom 8.3237942395680093 1.0120202430785918 15.5376396041142435 N
atom 8.3628852763250165 0.8799740190473220 10.1420944841792000 N
atom 8.3289105011821416 0.8874156704012839 4.8161697209714491 N
atom 16.5799557472899508 9.6227320104796998 15.5968387667406105 N
atom 0.0318118153302395 9.6065400128721556 10.1080322775978448 N
atom 16.5543210534445855 9.5140427780670649 4.8246526642612801 N
atom 1.6289383352882101 6.7224958947745002 15.4514993389719741 N
atom 1.6030308165251492 6.7170603032938887 10.1955722468146917 N
atom 1.6701412112114684 6.7040997184870976 4.7124639778500876 N
atom 3.2445199994710614 3.8861317394874266 15.5332876642040052 N
atom 11.6443326482584411 12.4503828553106874 4.7928296907232175 N
atom 13.2624917306389403 9.5922004945035138 15.4897186429015949 N
atom 13.2718030184761897 9.6010849698007323 10.0781559786787618 N
atom 13.3428701463296981 9.5282340603410720 4.6758734095301770 N
atom 14.9911874764270419 6.7321319433719697 15.5599515042945633 N
atom 14.9879318694087988 6.7164191855412767 10.1018275605913566 N
atom 14.8962738071963496 6.7077366148616120 4.7482657449291743 N
atom 6.5555870852024327 15.3379032764084453 15.5100812364325478 N
atom 6.6876587160123018 15.2587632731811045 10.1208586855439311 N
atom 6.5635027438776232 15.3353897199869600 4.7863473021787026 N
atom 8.3277938168285139 12.4845521992065152 15.5741166467267522 N
atom 8.2086088343249646 12.3589238677926154 10.1839649929815632 N
atom 13.2552265083449718 15.3507225633486843 15.5981958982626381 N
atom 13.1793977387977499 15.2821307945221569 10.1385145212609178 N
atom 13.2185205095660958 15.3380676369178026 4.7349653862073255 N
atom 14.8699180504673567 12.5363454230603804 15.5215508961323447 N
atom 14.8954762764276900 12.5592932000028377 10.0774801094332354 N
atom 14.8983326782758461 12.4864980940830712 4.7222798629204004 N
atom 9.8150543601168554 15.3245856212146538 15.5158929788277238 N
atom 9.9772809287335686 15.2044617630779406 10.0851668694432739 N
atom 9.9606125397594081 15.2566269113641244 4.7039018858302439 N
atom 11.5447609239648887 12.4979050655805235 15.4938530289690579 N
atom 11.5856603700008787 12.4716791565982188 10.1305055041785792 N
atom 14.8657355024086346 0.9052638708826919 10.1308903130951844 N
atom 14.9513692565925123 0.9548922076633639 4.7176938685009766 N
atom 3.3225493989530643 15.3241792578157145 15.4586310741199409 N
atom 3.2952458510707694 15.2028365974430866 10.1077781227509735 N
atom 3.1966116506578022 15.2221549647136882 4.6600206970502045 N
atom 5.0468877462887107 12.3896476212116138 15.5721375725536930 N
atom 4.9893898969706614 12.4390936415478812 10.0479781347283055 N
atom 5.0600915212792028 12.4272713288508019 4.6778467000349240 N
atom 6.7138235482562507 9.5702754043818050 15.5300665963849607 N
atom 6.7317906844530002 9.4582676449838932 10.1357656662713485 N
atom 6.7220815124342366 9.5481492882909276 4.8197578097919376 N
atom 8.2765421013733445 12.5694981106178840 4.7431779275332593 N
atom 9.8876171919488556 9.6588462992123354 15.5523727821575442 N
atom 10.0161986123076190 9.4789038067926388 10.1465012611281153 N
atom 9.9698516858135502 9.6217815807381228 4.7590289932450416 N
atom 11.6576928867543685 6.6480213187056645 15.4914387826729882 N
atom 11.6576555257891759 6.6906479154923941 10.0476776097876002 N
atom 11.6068759968210884 6.6450688382020102 4.7582042109921208 N
atom 13.2447913020123309 3.7629569109067824 15.5469602210405053 N
atom 13.3526015120245347 3.8313727852929493 10.1115650265659323 N
atom 13.2713037881466036 3.8490297048712061 4.7221841715972888 N
atom 14.9271283525895981 1.0021267964401952 15.5405809346078456 N
atom 6.7288382391929389 7.6833582488256633 1.9930664640222289 N
atom 8.3113354757230837 4.8588156180757851 12.8270303983728020 N
atom 8.3113919719536788 4.8335381487572198 7.4383941461504000 N
atom 8.2886770466141648 4.7966872849395941 2.0893332167056680 N
atom 9.8789430941805279 1.8958259422132056 12.7789265801021052 N
atom 9.9877141007634105 1.8908176756381434 7.4758965990106381 N
atom 9.9192395717633328 1.9198731517410168 2.0444609902942084 N
atom 0.0308902901878872 13.3962088458026685 12.9147647797907013 N
atom 0.0007593296672413 13.5698304071393334 7.4997866050286133 N
atom 0.0360085132745196 13.5223705103897949 1.9480631301267450 N
atom 1.5560504618728888 10.4004951709180808 12.8781560366125163 N
atom 1.6403564975798663 10.4664039301285481 7.4415119139155887 N
atom 1.6850701233763983 16.2018691433655491 12.7454474089157497 N
atom 1.6586957294780542 16.4379618307057811 7.3648970918929635 N
atom 1.7234618262347601 16.2965983689538660 2.0754511538685292 N
atom 3.4065979240030404 13.2916922110019105 12.8401308589072212 N
atom 3.3501490147815600 13.4134342933474873 7.4528888015022163 N
atom 3.2742614740390268 13.4062017131384970 1.9441322109117163 N
atom 4.9856362802779453 10.4494246880860846 12.8372754704474712 N
atom 5.0090972917510790 10.5507575349807734 7.3042497834158580 N
atom 5.0174974808519215 10.4747647425991648 1.9938979306315516 N
atom 6.7102906468542001 7.4963080322238849 12.7448379177128892 N
atom 6.6785750323173119 7.6183420738527756 7.4049229221057598 N
atom 16.5428591421848310 7.6973307977845860 7.4279300460069466 N
atom 16.5510799020293007 7.6708925140407924 2.0614222575689540 N
atom 1.6462636593694266 4.8352692492164238 12.8653441843504623 N
atom 1.5451756058260235 4.7785706855589911 7.4355532868173331 N
atom 1.6876555234023563 4.8446320074209588 1.9720625567818912 N
atom 3.2002334348510217 1.9497820370029559 12.7443670558118480 N
atom 3.3270697079859448 1.9074657326272242 7.3279308757404067 N
atom 3.2582688748079351 1.8820013127478188 1.9676488073164753 N
atom 0.0295771287621866 1.9033536082443843 12.8411842999874395 N
atom 16.5773043413350294 1.8224201344218853 7.5514429669917611 N
atom 16.5399077294769548 1.9810847492090151 2.0396732852907760 N
atom 1.7160669692207138 10.6292941420718652 2.0519976579452655 N
atom 3.3687415405867447 7.7198652323308670 12.7866225383642256 N
atom 3.3032781496983405 7.7080755535202687 7.2946305339887916 N
atom 3.3014366847466241 7.6453951004592096 2.0115825912335059 N
atom 5.0064829162133275 4.7921347773191023 12.7862832183309276 N
atom 4.9978957458206974 4.7704198069411339 7.4050788473569575 N
atom 5.0452417678678527 4.7881658230914317 1.9998849533012131 N
atom 6.5633653084293391 1.9300279229967763 12.7567612866689881 N
atom 6.6610262497777653 1.8449847147430243 7.3183513356813705 N
atom 6.6842285776321493 1.9496149560591824 2.0367551878323247 N
atom 0.0381451399901595 7.5938651186091697 12.8533928639617994 N
atom 15.0326961560546071 10.5625905805597888 2.0060298253161704 N
atom 8.2529228469819351 16.3066587472347884 12.7771039200081589 N
atom 8.2607581066477884 16.2623486005031594 7.4790478062018000 N
atom 8.3783727764445555 16.2411180600934095 2.0413198899160361 N
atom 9.9471815719650376 13.4071352904682062 12.7957677102887217 N
atom 9.9130679138470672 13.4322743527669086 7.4293282020376195 N
atom 10.0310904054986594 13.4201075598419060 1.9508956879377339 N
atom 11.5909525256406365 10.5996488873372066 12.7308272631975292 N
atom 11.5912500055434613 10.5294650639968452 7.4559253411731428 N
atom 11.5869244051561520 10.5400870508113425 2.1357726256971352 N
atom 13.2841571890325660 7.7011868235376761 12.7396643095725413 N
atom 13.2355584713439054 7.6577364902700937 7.4258572854871812 N
atom 14.9194846390587621 16.3863766652807143 12.8966458967183986 N
atom 14.8268190300473446 16.3322393753658304 7.4623355649176677 N
atom 14.9262443021148759 16.3217227081040157 1.9718543222698011 N
atom 11.5847632896005575 16.1615563491445293 12.9592049622469609 N
atom 11.5813386309879167 16.2493952349480075 7.4182342363679687 N
atom 11.5763443304393974 16.2189060821693403 2.0462013247753896 N
atom 13.2226849590637805 13.4299332245274581 12.8359605865461361 N
atom 13.2885707394276213 13.5021990827181764 7.4695991911457016 N
atom 13.2880865431121009 13.4761960021374669 2.1984306133904199 N
atom 14.9006948851026717 10.5081882545215635 12.7739628859689933 N
atom 15.0198510079819947 10.5350182635239378 7.4069311054798499 N
atom 8.3199980245936054 10.5644689855093787 7.4625341963477796 N
atom 8.2726226789880357 10.5841388471671465 1.9865003019814425 N
atom 10.0579560567172379 7.5851512099365879 12.8063073678867632 N
atom 10.0040870733490337 7.5553139428633020 7.4707199494471777 N
atom 9.9826035867067304 7.7604174009181115 2.0428284282499387 N
atom 11.5959468205548557 4.8345355273215596 12.7950370684367964 N
atom 11.7333584751782531 4.7333749153205940 7.3746872918892050 N
atom 11.6719061505606323 4.8002437384009404 2.0520703531771116 N
atom 13.1783975172979932 1.9297722247035303 12.8126851447464460 N
atom 13.2970390184085367 1.8564264897196050 7.4145027397214021 N
atom 13.2764053415764973 1.8613168151177535 2.0589705159729195 N
atom 13.2552748890942507 7.6894563992980434 2.0848100628199875 N
atom 14.9206667399734272 4.8438769292044777 12.8801856221349507 N
atom 14.8973716306645585 4.7291846139621052 7.4053438794725110 N
atom 14.9666778036614776 4.9349000825173084 2.0701966385216179 N
atom 4.9391490847930868 16.3552153719095479 12.7818544088247084 N
atom 4.9410071024583928 16.2146276012569359 7.3976453813591911 N
atom 4.9958718971598604 16.2604625516152979 1.9443959176531500 N
atom 6.6784779777073027 13.4407377164485133 12.8864116226257313 N
atom 6.6830010648354001 13.3923865753654603 7.4228787039337387 N
atom 6.6147455877995576 13.4549139526235937 2.0784836950813785 N
atom 8.3544966950116404 10.5496688955035225 12.7151188586747210 N
