#===============================================================================
# Created using the Atomic Simulation Environment (ASE)

# Thu May 11 09:00:34 2023

#=======================================================
lattice_vector 16.4884741999999989 0.0000000000000000 0.0000000000000000 
lattice_vector 0.0000000000000000 17.1353250322131494 0.0000000000000000 
lattice_vector 0.0000000000000000 0.0000000000000000 16.0845834599999904 
atom 0.0092208150045380 15.3664426630867919 2.6401400466487099 Ga
atom 1.6645919069536925 12.3687925332148438 13.4363736093599542 Ga
atom 1.4895037294363105 12.5085864327730985 8.0783903192865072 Ga
atom 1.5566308077507740 12.4499494351192173 2.7610867391955312 Ga
atom 3.1826481474198052 9.5679544907858620 13.4197593080071833 Ga
atom 3.4980929035824455 9.6352201539818338 7.9250328397618262 Ga
atom 3.3245901601948598 9.4341304082072881 2.6163988980765889 Ga
atom 4.9802673496448273 6.7020993648011213 13.3331168525118695 Ga
atom 4.9919658277524057 6.4403491198339724 8.0177879472201230 Ga
atom 4.6421078463740724 6.4410897440010952 2.6354112778875405 Ga
atom 6.5068351947376675 3.6734523628166049 13.2764877517348605 Ga
atom 6.6322459442827286 3.6795557255940032 7.8692671143541757 Ga
atom 8.2006034338466911 6.6698518037030556 13.4441018209716816 Ga
atom 8.1755868159815499 6.5581647779955361 8.1235340042148252 Ga
atom 8.1818456905348356 6.6196723761952008 2.7102013588636162 Ga
atom 9.8569698256211868 3.9142180764184653 13.5071641406934013 Ga
atom 9.8432796074328266 3.6325292576851069 8.1151530859171199 Ga
atom 9.9302867827848935 3.8777871133101240 2.7195334736629655 Ga
atom 11.4388666926862754 0.9366148931142138 13.4776870178801662 Ga
atom 11.6458061790043175 0.9224789841671063 7.9114920494383432 Ga
atom 11.4975237880985155 0.9839971404376281 2.6378813651167929 Ga
atom 0.0303929879182353 15.1264790302094809 13.5095112539470499 Ga
atom 0.1286070900019269 15.2303986570316656 8.2635507169477869 Ga
atom 3.2281817139957454 3.8355658322274238 7.9240559824352603 Ga
atom 3.2804317919702304 3.7672100727530466 2.6094842562713776 Ga
atom 5.0272950088956208 0.8350190197445431 13.4100390831755760 Ga
atom 4.9733442052023786 1.0890294858825398 7.9833739706145002 Ga
atom 4.9923277163049926 0.8280068873833012 2.6172185749501335 Ga
atom 16.3628949862742630 3.8354437748407606 13.3744820689986614 Ga
atom 16.4113915950514091 3.9274997682113506 8.0953185016537290 Ga
atom 16.3990071118274443 3.6808270692098515 2.7482427288305851 Ga
atom 1.5995237809891303 0.9496917230704777 13.3858612644012940 Ga
atom 1.5778330500336821 1.1649787331164587 8.1423796200562375 Ga
atom 1.6308322773278034 1.1299165584210924 2.6873150805640282 Ga
atom 6.5474943604205125 3.7224656701273182 2.6994691209130139 Ga
atom 8.3335304046183403 0.8620188938732289 13.4384875904298404 Ga
atom 8.2501028085120787 0.7828693057449418 8.1751480905599898 Ga
atom 8.1772417123363184 0.9455437417208746 2.6226402923537466 Ga
atom 16.3837536209695038 9.5641711933555715 13.4450573973062077 Ga
atom 0.0903284099019109 9.6475868347739926 8.0872827988512626 Ga
atom 16.4372052599018481 9.6560289503397314 2.6412385967806733 Ga
atom 1.6875903279523192 6.7422785494604973 13.3724217199313493 Ga
atom 1.7175085009163744 6.8283149503338443 8.1046865269224195 Ga
atom 1.5785475620785525 6.4606203787237710 2.6696833580216643 Ga
atom 3.3548433311301693 3.8107885053199801 13.3543992454950970 Ga
atom 11.5220788830326875 12.3879347067545176 2.7486693491794365 Ga
atom 13.1036595172542167 9.4610269100604807 13.4264976033438508 Ga
atom 13.2926675121598219 9.5426980126567837 8.0685248999791739 Ga
atom 13.1012351352086895 9.5123068106030697 2.7343092678472223 Ga
atom 15.0348755373976122 6.6663183433166031 13.2778911227365164 Ga
atom 14.8621469707462222 6.7733239196290125 8.0295328555862220 Ga
atom 14.9175330688049232 6.6979051846698576 2.7601136735861012 Ga
atom 6.6911110478495921 15.2850021859692529 13.4784517066269327 Ga
atom 6.5622816003541757 15.2146074104438682 8.1712663494581452 Ga
atom 6.5985426017397923 15.1898308949297061 2.8245468097689641 Ga
atom 8.1910690176495979 12.2992967503714112 13.4628327623654602 Ga
atom 8.3151116698974334 12.2714948517216946 8.0186672791523677 Ga
atom 13.2120293920695921 15.1668981099503331 13.2705051316913316 Ga
atom 13.2765242077961236 15.3015824563501894 8.0810676439119504 Ga
atom 13.3205508583857561 15.3330804968172618 2.4315054943584511 Ga
atom 14.7740719164144547 12.3601255823998919 13.3557237969193618 Ga
atom 14.7406577936652710 12.3334548518296625 7.9902330433419033 Ga
atom 14.8150860223761889 12.3876178521823501 2.7068970837429349 Ga
atom 9.8553258953848939 15.2019300431493551 13.4957439174042353 Ga
atom 10.0661957964818320 15.1065660438220384 8.0960184775125192 Ga
atom 10.0300439578236844 15.1747376510995071 2.7631700771566483 Ga
atom 11.5283408739659645 12.4544489701526562 13.3891033342692989 Ga
atom 11.5900815746821344 12.3270066523522690 8.0661965396603161 Ga
atom 14.9010681758775938 0.9231955006481833 8.0659415333918787 Ga
atom 14.7827061414617802 1.1050204918434297 2.5898000093732505 Ga
atom 3.4392186732357044 15.2818646845383785 13.3848269959016370 Ga
atom 3.2948629182806117 15.4060463930444076 8.0826905411572270 Ga
atom 3.3035462008311285 15.2302174124327898 2.8218051256946444 Ga
atom 5.0009434018568628 12.4850381448040686 13.3908639136389471 Ga
atom 4.9563583496757406 12.3410350580198482 7.9857435215329842 Ga
atom 4.8537841423926285 12.5062932573507712 2.6946803289483960 Ga
atom 6.6082952579170557 9.6425888840464733 13.3202920393274553 Ga
atom 6.7530654374632366 9.4542457937499780 7.7568620778544748 Ga
atom 6.5628121346975936 9.5452641905271882 2.7625590283893739 Ga
atom 8.2229031778169581 12.3237868555552588 2.7484351536556035 Ga
atom 9.8663040630504160 9.4914633823714905 13.2600073801077709 Ga
atom 9.9818413908414811 9.4986732185318417 8.0760884212556761 Ga
atom 9.7942160127537967 9.5684990786401620 2.7103853523339931 Ga
atom 11.5007283408472176 6.7384632058691896 13.2708964195360881 Ga
atom 11.4421938020629881 6.6166858396543962 7.9576970569278842 Ga
atom 11.5885350449589826 6.9103843723994345 2.8411090596332764 Ga
atom 13.0973992372139918 3.8099739857576362 13.4288873807847917 Ga
atom 13.1721441683610383 3.7476109771593449 8.0079382463977815 Ga
atom 13.3370240215774079 3.8227757407417466 2.6137431512534515 Ga
atom 14.8279883115882498 0.9798721543398597 13.3739849180627353 Ga
atom 6.4933855642949414 7.4310802435276884 5.3448259325659828 Ga
atom 8.1799536967812649 4.7648348226430866 0.0410315356433216 Ga
atom 8.1269086440409808 4.7453606512021436 10.6494478867625872 Ga
atom 8.3152674711295980 4.7496878396035171 5.4991795006743978 Ga
atom 9.7987501672511801 1.8391699865599109 0.0419066581585244 Ga
atom 10.0759186894665049 1.7963968887680146 10.7901033721977520 Ga
atom 9.8602409395845143 1.8133728336834916 5.2720028216824133 Ga
atom 0.0661597708408538 13.1920428357358208 0.0928399611279267 Ga
atom 16.4735604854333992 13.3856516776855852 10.6902831649181937 Ga
atom 16.4049159067897676 13.3303124569665350 5.3716737691185532 Ga
atom 1.6449464042154509 10.5974038807645154 0.0219465836973153 Ga
atom 1.7832536028257477 10.5075324763316065 10.7857438853518133 Ga
atom 1.7200346302482283 16.2824234480817687 16.0425692491603478 Ga
atom 1.6196502434202915 16.1466423343927161 10.6588297250250452 Ga
atom 1.6110835037705276 16.1694467099274632 5.4488617783406550 Ga
atom 3.2421352513049957 13.3179508658460435 0.0499100778410712 Ga
atom 3.3275605912281070 13.5132785704084348 10.8209746405716025 Ga
atom 3.2308951421620944 13.4027764733410724 5.3066131981786802 Ga
atom 4.9282609345132808 10.5395308604735085 0.0167490826662667 Ga
atom 5.1362039138695215 10.4262259435787605 10.7248414724248526 Ga
atom 4.8754791615932795 10.5540979174565468 5.2008168268421162 Ga
atom 6.5224858792234786 7.6058294116191938 0.0349084602690128 Ga
atom 6.6021486110270269 7.6745555257218312 10.7259010641883865 Ga
atom 0.0366886171994409 7.6717737290446353 10.6572379230787764 Ga
atom 0.0872086716019464 7.5478320511329136 5.4027847755812983 Ga
atom 1.8051545882665145 4.7419842230884033 16.0072599168585299 Ga
atom 1.6251064004084272 4.7843247129412365 10.7106020460114966 Ga
atom 1.6539936811900391 4.7679653210575097 5.4323811145255245 Ga
atom 3.3127918712324265 1.8826392689030285 16.0639102858237663 Ga
atom 3.2063346799273380 1.7236554343899195 10.7746179820872570 Ga
atom 3.3919932829422557 1.9100067038970472 5.1711188440488671 Ga
atom 0.0067949808570115 2.1457840571211668 15.9897929506499779 Ga
atom 0.0075937662462171 1.9899059610568117 10.8242401266983812 Ga
atom 16.3220365941617160 2.0020059109271107 5.4222617353431088 Ga
atom 1.5620070715343319 10.4310299660568759 5.3532907665281790 Ga
atom 3.2974340080953661 7.6707517147721349 15.9846987658732917 Ga
atom 3.3635023420763268 7.6721198514253741 10.7399282143256851 Ga
atom 3.2476616231106008 7.4820225780864336 5.2432806132720904 Ga
atom 5.0148963279767926 4.7713343727352822 0.0379144683176782 Ga
atom 4.8050216527860465 4.7794552916398905 10.7772141375410175 Ga
atom 4.9011410196547383 4.6890258815245911 5.4495326816604992 Ga
atom 6.5625608999629552 1.9027693193856778 16.0630547653877613 Ga
atom 6.5583993612864111 1.9612231279089185 10.6611174517744747 Ga
atom 6.6699757981616763 1.8995634087671722 5.3785569236309128 Ga
atom 0.0237395574133020 7.6418885231473412 16.0300751107715946 Ga
atom 14.7660360145344498 10.5593307297895151 5.3582928524076392 Ga
atom 8.4040541671332907 16.1908979692505461 0.1639035468759526 Ga
atom 8.3225530948702247 16.0840171696556453 10.6417349307284539 Ga
atom 8.1919314269385968 15.9987077933587134 5.4087819095435643 Ga
atom 9.8023203460949997 13.1880026691679646 15.9710633552857182 Ga
atom 9.9203273966985570 13.1840004400794992 10.8027034466769081 Ga
atom 9.8816902442894623 13.2825305821364577 5.3465996008472931 Ga
atom 11.6151898781095877 10.4224266655549993 0.0603607040907797 Ga
atom 11.5245563043347268 10.4585271939122215 10.6980912787812148 Ga
atom 11.4483231750336945 10.5462219899691796 5.4699497375107438 Ga
atom 13.3049179167188285 7.5835216512301029 0.0187984019558160 Ga
atom 13.2665580235346283 7.6245410610328026 10.6240672653022905 Ga
atom 14.9530845440226692 16.0845341706013620 15.9356215176122635 Ga
atom 14.8806047559651162 16.1462361758727511 10.8571853885141216 Ga
atom 14.7626432861077177 16.2365151817209217 5.3739819832643665 Ga
atom 11.5091189602366022 16.3294119879075978 0.1342945068862839 Ga
atom 11.4994943867796930 16.1235201502130110 10.8538465366526129 Ga
atom 11.5897259654249556 16.1531786912465307 5.2125182437777671 Ga
atom 13.2639695140848151 13.3361886843895423 15.9884017291188147 Ga
atom 13.2132861038573299 13.1661180375753890 10.6949755611523756 Ga
atom 13.1804287512876233 13.3373987162777841 5.3411746835187417 Ga
atom 14.7881104475099896 10.4425619196002799 15.9969841211708381 Ga
atom 14.8922629818421122 10.4593980650356908 10.7762124004105804 Ga
atom 8.2059845167464474 10.3476366627288154 10.7056392392611546 Ga
atom 8.1360682134735836 10.3909209513698340 5.3033030334202786 Ga
atom 9.9213047720173666 7.5634877054089733 15.9917279573324507 Ga
atom 9.9418985352653504 7.4866081600414631 10.7471387056387080 Ga
atom 9.9262192676050525 7.7313864635395833 5.4053849553111446 Ga
atom 11.4227226879424837 4.8050471794580742 0.0225512016662058 Ga
atom 11.3568863687975501 4.7922849765262727 10.6264418038143074 Ga
atom 11.5825487512237366 4.7214255310143045 5.3718066820936405 Ga
atom 13.1730247373366236 1.9667873507959619 15.9773184377993065 Ga
atom 13.1812607507781276 1.8567703645833795 10.7132541708589102 Ga
atom 13.2025219278778501 1.9518654301919118 5.2327370984639527 Ga
atom 13.1736320486071818 7.6561908728472252 5.4238483946192302 Ga
atom 14.9545406929069102 4.8859078143709631 16.0077136942401985 Ga
atom 14.6193105752520278 4.7824310436661754 10.7157334788722309 Ga
atom 14.8835927911471995 4.9366232246643582 5.3103418436892289 Ga
atom 5.0198475281499606 16.1252930249489914 0.0027772058132177 Ga
atom 4.9906089861518241 16.2650673069261273 10.6896092016438704 Ga
atom 8.3044050692170348 10.2971828804818166 0.0981874587718566 Ga
atom 6.4736156949092365 13.1589760511644638 5.5726574680717311 Ga
atom 6.6641170927423588 13.2250441441383515 10.6492481872153490 Ga
atom 6.6789585277838093 13.2937189190251193 0.0876411681672108 Ga
atom 5.1240360947276029 16.2074720135032493 5.3900000069543346 Ga
atom 3.5326641196205331 9.6184832819652932 10.0416859740134807 N
atom 3.2499437439443759 9.5793513900273215 15.5170056578816524 N
atom 1.6012525510954292 12.3898224017258514 4.7239073738543915 N
atom 1.6933625180645671 12.4315637537314068 10.0751751459902348 N
atom 1.6542505789900721 12.2385491720137551 15.4587532064436424 N
atom 16.4330117661751558 15.2277347189680849 4.6619886759236984 N
atom 3.2126204025284522 9.4733116047395391 4.8012219427287741 N
atom 4.9431294130668277 6.6674909608607580 15.2904612161487936 N
atom 4.9664163831199506 6.6497750368994986 10.1370853675976491 N
atom 4.8454686572547665 6.5045017790897699 4.6094421522754958 N
atom 6.5545226820731175 3.8263449206698947 15.3444817901735906 N
atom 6.4901392441257855 3.8313377010867358 10.0163959806479497 N
atom 8.2184661387229241 6.6699457070433450 15.4759341822445027 N
atom 8.1480307622765515 6.6126679760822089 10.1446872233262511 N
atom 8.3155498303693278 6.6142374686460128 4.7697792083937038 N
atom 9.7298891069457358 3.9098764502301986 15.5045176072923692 N
atom 9.8091305576093859 3.8443948956433731 10.0632755506350922 N
atom 9.9352399793109569 3.7831621465429763 4.7280011214172664 N
atom 11.5177728740969378 1.0280066017059759 15.5546318258196248 N
atom 11.6065161876318186 0.9525911700262392 9.8925542409368283 N
atom 11.5989109138880266 1.0369837143632747 4.7091924119038424 N
atom 0.1326121102011412 15.1468806227771662 15.4054483478773410 N
atom 16.3112395532868675 15.1606003544558128 10.2242347063400274 N
atom 3.1512848083812655 3.8778418723934784 10.1104501896436467 N
atom 3.2207485530641957 3.7323606296890053 4.6241331947274587 N
atom 4.9660586245067275 0.9442691690983314 15.4291107444004627 N
atom 5.0109057783474569 1.0173438787484834 9.9303819330827601 N
atom 5.0819349119281947 0.9318611762849724 4.6615532344196531 N
atom 16.4400518136439437 3.9382431917614147 15.3506251719550821 N
atom 16.4000948462602594 3.9615597609002222 10.1386963084812081 N
atom 16.4597781654494995 3.8266580727167647 4.7961052252613054 N
atom 1.6365936722252701 1.0210194374343473 15.5419750311330915 N
atom 1.6777274812108480 0.9352489142416875 9.9146200962907258 N
atom 1.5444433442748260 1.0148055429919673 4.7217450356240853 N
atom 6.5456425744154165 3.7980794931292099 4.6954916573285894 N
atom 8.2330872856556852 0.8496341092714093 15.4911527990421565 N
atom 8.4262536821872338 0.9619513555525461 10.0438781016719734 N
atom 8.1748074833838924 0.9820854679376059 4.7258785462309074 N
atom 0.0877481941777047 9.5795909179421326 15.5535425585908733 N
atom 0.0560788178072671 9.5379712670525869 9.9723325751297249 N
atom 16.4322273986763072 9.5032573724319676 4.7864352848473173 N
atom 1.7223911967168053 6.6799917659827290 15.2463132355132718 N
atom 1.8286707774789688 6.7603238971676234 10.0754864588810609 N
atom 1.6691246469218572 6.4571785394426868 4.5708671436745272 N
atom 3.2714575047271914 3.7208433966247481 15.5423959572045174 N
atom 11.5676201407631076 12.3035763812885346 4.6681489213329037 N
atom 13.1844526168472829 9.6408421504800046 15.5479142683735674 N
atom 13.1969376371876574 9.4274728550842344 10.2296330778708420 N
atom 12.9589995617484615 9.5507344007457711 4.8204249135042847 N
atom 14.8797807497810428 6.7824361969890985 15.3588532440536003 N
atom 14.9075133862407032 6.6210987250161057 10.0235130931957492 N
atom 14.8591809479467845 6.8616535449702694 4.7706870184049075 N
atom 6.7121610044145141 15.2209345114548036 15.3729552053424321 N
atom 6.5625962478428121 15.3086474251302675 10.1257349342445622 N
atom 6.5802374987792671 15.1150803785551258 4.7593691386784043 N
atom 8.1447041308654207 12.2653549140299667 15.4361513264827881 N
atom 8.3079385635880154 12.2601583263651133 9.9959905479979998 N
atom 13.1942641712725610 15.3053542558459554 15.3107838654265187 N
atom 13.1711513071381621 15.2393449014304085 10.1750048961436210 N
atom 13.2359299153317362 15.2577901597144550 4.6116155708990130 N
atom 14.8996265663488554 12.3381769207260970 15.4129551552567730 N
atom 14.6736959249914314 12.2887418615787993 10.0102351526692868 N
atom 14.7887850916463695 12.4207219518263479 4.7286865352904712 N
atom 9.9521797490791517 15.2144635246543469 15.3678478544596686 N
atom 9.9075614036769508 15.0368769488198790 10.1242744134341631 N
atom 9.8482805634844457 15.1215687573124331 4.7747313703401710 N
atom 11.6455017101169283 12.4620803290314441 15.3856846683260233 N
atom 11.6425121847873427 12.3254620395562728 10.0802561724888839 N
atom 14.9076163813801994 0.8937108599001392 10.0948967803329435 N
atom 14.7565959850497546 1.0321942003314470 4.5471543661624274 N
atom 3.2798757000293017 15.3533820657301376 15.4621970978112842 N
atom 3.2827941806214409 15.2786157731525858 10.1088794953421619 N
atom 3.3754117087216278 15.2926719426406983 4.8870942317886241 N
atom 4.8612652396445934 12.2834543475778109 15.4828040308969825 N
atom 4.8234496563638922 12.2822435230712887 10.0503723842713573 N
atom 4.8792101801402090 12.3353392318090709 4.7478970693760258 N
atom 6.5353504330198362 9.5947704341959987 15.4344100924759484 N
atom 6.6621830574738308 9.5120789502801486 9.8887262212884313 N
atom 6.4755792505467369 9.5216546898185843 4.7191890747700800 N
atom 8.1882916680118409 12.2530593366838758 4.7449675702795426 N
atom 9.9963430869584311 9.5417705464214713 15.3063273832500073 N
atom 9.9427819344956134 9.4840584564971913 10.1037618135900811 N
atom 9.8878758944035372 9.5080986745790863 4.7338767094365144 N
atom 11.6183796252896059 6.7846484867650538 15.4220637074879363 N
atom 11.4556869899658782 6.6972168573889599 9.9261518433727236 N
atom 11.5125781938517751 6.7306598387119490 4.8764999900372095 N
atom 13.1520777208072079 3.9918401538697568 15.4341867872606162 N
atom 13.0209817010379574 3.7374936298780805 9.9091178592575559 N
atom 13.3046160249403833 3.9343844752470374 4.6653269082849018 N
atom 14.8316058775545514 1.0121327871612371 15.4281291682616359 N
atom 6.5339953540758948 7.5032979688494024 2.0604471510790909 N
atom 8.2307849461911911 4.7291418114941948 12.6366177001556448 N
atom 8.3471336671623959 4.6163769040713891 7.4202769991774993 N
atom 8.1472960395990235 4.6938243192298170 2.0606956019769407 N
atom 9.8930558945114697 2.0397660846946728 12.8708218342174554 N
atom 9.9600510569120893 1.7642093198598068 7.3020848768666244 N
atom 9.9210912342441766 1.9556496988157555 2.1261383003649796 N
atom 16.4227458667501693 13.2752980392939399 12.7599483476044551 N
atom 16.3715721757788906 13.4511069259005467 7.4418268043252329 N
atom 0.0209438077852752 13.3704340232049663 2.0895448123366389 N
atom 1.6113326218236717 10.4545162724971235 12.6983647906789336 N
atom 1.6946297089409890 10.5573754902051995 7.5197520099853783 N
atom 1.7240728186436762 16.1083372977017660 12.7599522985139320 N
atom 1.6514456703470346 16.2445277718631971 7.5334595678223160 N
atom 1.6897349282626188 16.2213284068957329 1.9836952240801213 N
atom 3.2052827093088374 13.3792508358398887 12.9353998512137967 N
atom 3.2358720714495104 13.4556001472956481 7.4170476827083265 N
atom 3.1165119722551284 13.5130314358680383 2.1853769980452897 N
atom 4.9446595339020174 10.5080617101449096 12.7972540763216767 N
atom 5.0918739884790600 10.4950674969425375 7.2494910210564489 N
atom 4.8904214016875303 10.5351341765072988 2.0955429775663159 N
atom 6.5510787113827700 7.7327405690919635 12.9092726218558909 N
atom 6.6196136634619940 7.4813100734386904 7.2786835919263950 N
atom 0.0953730764392642 7.7451016780795845 7.3495187445878836 N
atom 0.0579398452065935 7.6533165543762864 1.9959392269999436 N
atom 1.6405053761448216 4.7600629006292019 12.7604294283403981 N
atom 1.5806851330560030 4.8788421162298885 7.4297400623646670 N
atom 1.4989876283861370 4.6058863159372372 1.9404859380532002 N
atom 3.2872494031833885 1.8974837545232843 12.6714679950507545 N
atom 3.3431915929350309 1.9508000231980165 7.2276721228936536 N
atom 3.3253164824520067 1.9558847717628205 1.9533535605705810 N
atom 16.4508069955022265 2.0349957618123780 12.7600961691650614 N
atom 16.4628024195485629 2.0058285090038201 7.3408592350361692 N
atom 16.4332645938454576 1.9408750841625801 1.8880809126871925 N
atom 1.6001032552997920 10.5140138549095568 1.9915538599673759 N
atom 3.3592925933518991 7.6836575197910761 12.6430840910900635 N
atom 3.3710461524801230 7.6596513481968085 7.3418811771049990 N
atom 3.1914321042655622 7.4903715210351383 1.8493390455411041 N
atom 5.0226278480118980 4.7582202457586158 12.7902751558845793 N
atom 4.8524797912564068 4.6780699936232581 7.4424028413959116 N
atom 4.9243563847177825 4.6876013243909211 1.9066827575775154 N
atom 6.6878479842576555 1.7666802442534544 12.6285658281882913 N
atom 6.7230366223918425 1.8333116024699199 7.3296576558392035 N
atom 6.5595675362550780 1.9595671589444223 1.9019018391398699 N
atom 16.4720154717903284 7.6377260560110303 12.6000868471822489 N
atom 14.7129800801299844 10.4089699247518652 2.0015414277248293 N
atom 8.1846450767222283 16.1613610051392875 12.6607603338608197 N
atom 8.2993829282796057 16.0581685677404877 7.3881632153869061 N
atom 8.2269511238803865 16.1483388131326535 2.1258944367485122 N
atom 9.8609885966208939 13.3235960018239084 12.8540867284216080 N
atom 9.9247291091556615 13.1269471681580878 7.4625629856992957 N
atom 9.9057073551845978 13.3545675748772030 1.8950703721791058 N
atom 11.5122472554350388 10.4713726588510241 12.7798790998984870 N
atom 11.5769734022657502 10.4907256780272711 7.4291398444371666 N
atom 11.5837673905006220 10.5112885316666009 2.0845781623565149 N
atom 13.3000480129957328 7.5320062119668458 12.6898148255048895 N
atom 13.1102501094154462 7.6522525040453626 7.3263065921728447 N
atom 15.0222817344756638 16.1955142191915940 12.7320226604230662 N
atom 14.9655956933359811 16.2006453543658928 7.3592822025149625 N
atom 14.9608839468491635 16.3602281921505792 1.9261890732117479 N
atom 11.5050653052889480 16.2355680775701749 12.8820076398833212 N
atom 11.5595976386268351 16.1334645990819538 7.3050656520358324 N
atom 11.4556295489955922 16.1967392354925082 2.0755069414403664 N
atom 13.2500683569046629 13.3802266403627517 12.6789411726920491 N
atom 13.2140403240426512 13.2950837046253092 7.4115914498648072 N
atom 13.2639544262438438 13.4460561629818294 2.0730368822378571 N
atom 14.8470657537606012 10.5206348833019909 12.7095469157882217 N
atom 14.9406233370173762 10.4463861581391555 7.4041852305899498 N
atom 8.2958731808975532 10.3894787317620487 7.2870510393521553 N
atom 8.1612872180600302 10.6163345047909594 2.1012516789271674 N
atom 9.8146196700815569 7.5265785651211266 12.6550036443985494 N
atom 9.8306903495827012 7.6005031457691246 7.4827403213183938 N
atom 9.8704138804436568 7.6301639042106872 1.9839956306367330 N
atom 11.4338901384643261 4.8264098249842800 12.6880502018986689 N
atom 11.4168913333378779 4.6735570245916378 7.4260677108369189 N
atom 11.5317425447455300 4.9800548556067898 2.0316728339999375 N
atom 13.1234113089200157 1.8310106457679818 12.8605341999144329 N
atom 13.1816795305460861 1.7965304724946021 7.1941577668182841 N
atom 13.1931128093660757 1.9147732465323255 1.8706644727567661 N
atom 13.4175801178112124 7.5532903271824399 2.0098662741409683 N
atom 14.6914820047792531 4.7603463318739339 12.6206144385380110 N
atom 14.8985318825763642 4.9196331860216658 7.3510022650124638 N
atom 14.9341169801874596 4.8417573875408912 1.9283089818422992 N
atom 4.9523839847033209 16.2017409296007351 12.6958552523900376 N
atom 5.1073508641114032 16.2163137159705855 7.4469571915087007 N
atom 5.0303868495356774 16.0819608589452443 2.0665636747915950 N
atom 6.5017390464462288 13.3992910557834115 12.7206638271857866 N
atom 6.6034683840879147 13.3095944433286473 7.3405160764392354 N
atom 6.6310457171979147 13.4137493631888081 2.0820913403883714 N
atom 8.2794312230810245 10.4772089612677721 12.7330950917481349 N
