#===============================================================================
# Created using the Atomic Simulation Environment (ASE)

# Thu May 11 09:00:43 2023

#=======================================================
lattice_vector 16.5841519999999996 0.0000000000000000 0.0000000000000000 
lattice_vector 0.0000000000000000 17.2347563186669994 0.0000000000000000 
lattice_vector 0.0000000000000000 0.0000000000000000 16.1779175999999900 
atom 0.0188106773099998 15.2199715126891384 2.8070312085122047 Ga
atom 1.6976142165497923 12.5368618450751761 13.6115515132776537 Ga
atom 1.4874630903608821 12.4338417777684924 8.1877438456235474 Ga
atom 1.6960094954643514 12.4550618436280676 2.6125972862386591 Ga
atom 3.3145525859507976 9.5253462824918564 13.6798624285804529 Ga
atom 3.3145970119902861 9.5160170035627303 8.2435774518249314 Ga
atom 3.4468933932894692 9.6765782809925032 2.7156765910031999 Ga
atom 5.0033072621554124 6.7264458810124195 13.4471664063243779 Ga
atom 4.9306780528940193 6.6076865885664446 7.9826860546781244 Ga
atom 4.9211721323062507 6.5749045881696508 2.5841217068106950 Ga
atom 6.6178098598708477 3.8554070116258199 13.2075363610914014 Ga
atom 6.6614975775039564 3.7774097382922163 8.0297488135846109 Ga
atom 8.3034535548856727 6.7561088467962289 13.6430695151533694 Ga
atom 8.2554071183417363 6.8302197210767304 8.1643998079457756 Ga
atom 8.2630324733609228 6.7243424903102635 2.6544568538478894 Ga
atom 9.8585811122457851 3.8437904515444776 13.4209154527953363 Ga
atom 9.9778535138458029 3.9762492349505845 8.2963705976260549 Ga
atom 9.8979034480858239 3.8923489793828865 2.6728514134076105 Ga
atom 11.5282332579441551 0.8843968356080545 13.5232092039753429 Ga
atom 11.6078288756310215 1.1485191296523811 8.2251027251284903 Ga
atom 11.5674156761261759 0.9792903836060591 2.7125012952788974 Ga
atom 0.0320937759954036 15.3198318941886367 13.5970701772212497 Ga
atom 16.5822882368010056 15.2493349108676792 8.0630516562706394 Ga
atom 3.3192885882420309 3.6934514767496029 8.0191530990824305 Ga
atom 3.4325149253959846 3.8967531934799533 2.6498149497123138 Ga
atom 4.9115757345690634 1.0938268894337402 13.4282747424549420 Ga
atom 4.9631017121666661 1.0269280540412145 7.8851979376864954 Ga
atom 4.9711395310388546 0.9901142940773463 2.6828543663250115 Ga
atom 0.0927465343609418 3.6895304244796305 13.5793396636456425 Ga
atom 16.5514417877960689 3.9343835941423122 8.1292523092196074 Ga
atom 0.0830387830738087 3.7834534871773426 2.7592031279354914 Ga
atom 1.7961529194361274 0.9071104053067659 13.4089264116371716 Ga
atom 1.5762672451605801 0.9315877164661869 8.1741652303049754 Ga
atom 1.6261112873637202 0.9135715450819657 2.5723005631849567 Ga
atom 6.6040613824207828 3.8669919054452193 2.7702714351705997 Ga
atom 8.1849872356391238 0.9816607409891634 13.4360975759423287 Ga
atom 8.3661796933671404 0.9236261040077776 7.9712966597601049 Ga
atom 8.2983752612893351 1.0237939250764632 2.5858060243437957 Ga
atom 0.1391940808490725 9.5045574808273123 13.4113480789197368 Ga
atom 16.5376838235221548 9.5774048462643897 8.1828273319696496 Ga
atom 16.5819861763272058 9.6447065637927754 2.6645238818711947 Ga
atom 1.7203742772392792 6.5914508610732980 13.4757245671302197 Ga
atom 1.7025284409878869 6.8108815073220690 7.8691112717209908 Ga
atom 1.7184894908725008 6.5662077307506284 2.6650456054264287 Ga
atom 3.4319884260475928 3.7896110505098628 13.4611343021883947 Ga
atom 11.5407678954520030 12.2553263786342903 2.5912475126543075 Ga
atom 13.2647495954513346 9.5545247552084192 13.2867925299387935 Ga
atom 13.2140043640540643 9.6269327534923832 8.2198243763174155 Ga
atom 13.2143445183070991 9.6544287415725965 2.8119333005745224 Ga
atom 14.9533930162962889 6.5524053883093787 13.2791367081609817 Ga
atom 14.9448246776276683 6.6851678358113791 8.1363375885903118 Ga
atom 14.9501396062100174 6.7297076319556588 2.6375466829168275 Ga
atom 6.6188312870474793 15.1852040759778895 13.7413021747745816 Ga
atom 6.6434903771552554 15.3472315910882866 8.0429897215160988 Ga
atom 6.5784310197792886 15.3388600746777151 2.6833421337184795 Ga
atom 8.3808495431050876 12.4291524805381499 13.4320829217978908 Ga
atom 8.2124140384344759 12.4372703626487020 8.0240762316130958 Ga
atom 13.2672838758800218 15.3887402197380450 13.5537439594280684 Ga
atom 13.4107837949062088 15.4375669283918668 8.0909112794594886 Ga
atom 13.2538440620104154 15.3090977472487797 2.8164741399384092 Ga
atom 14.9980127988106418 12.5282305760871022 13.6304070380388822 Ga
atom 14.9379291056656029 12.4101702459156993 8.1041972411238934 Ga
atom 14.8661600801189770 12.3342717145208578 2.8141620592787744 Ga
atom 9.8266730768363164 15.3514149706597927 13.4471735119251186 Ga
atom 9.9711446076938746 15.2874208123077882 8.0885299013602268 Ga
atom 9.9053620616209610 15.3140070222342697 2.7809752003226356 Ga
atom 11.6533732718895120 12.4118100955065813 13.4868633590940767 Ga
atom 11.6094369269291100 12.6133370342196027 8.1829106934496263 Ga
atom 14.9294905521615213 0.9013949150926807 8.2662264933695457 Ga
atom 14.8693162657314009 0.8944625900499167 2.7435736275099316 Ga
atom 3.4714868930391023 15.3966211759778417 13.3277558671419172 Ga
atom 3.3444587448686116 15.3682163701894705 8.1104482098992499 Ga
atom 3.4399652508786018 15.3519157357150569 2.9319996596686204 Ga
atom 4.8941832454531955 12.4444471027253112 13.4409077879196897 Ga
atom 5.0348789850117504 12.2836921255331166 8.1726421297430747 Ga
atom 4.9065213999133679 12.4663264275110155 2.7497100123521476 Ga
atom 6.6226973810236567 9.5880199841971638 13.4433036194350866 Ga
atom 6.6856308924378665 9.5549974285565540 8.0751072926719853 Ga
atom 6.6018953684360540 9.4459232655329046 2.7401162343975782 Ga
atom 8.1766421001071894 12.5001908052068416 2.7147618194167329 Ga
atom 9.8812403834442115 9.5786737148304155 13.4264989271610364 Ga
atom 9.8544170131717301 9.7368221866458615 7.8416568442035208 Ga
atom 9.8494828663056051 9.6768368912591463 2.6799106332658544 Ga
atom 11.6684971716821000 6.8140625812714042 13.5286903068210336 Ga
atom 11.6239065520371732 6.7849715445193342 8.0494262638975407 Ga
atom 11.6598022438234938 6.6925124822790405 2.8070003935906533 Ga
atom 13.1925180179059360 3.7776129701562868 13.5556872094553000 Ga
atom 13.2287467133311001 3.8282900028908209 8.0742385105077723 Ga
atom 13.1978899270135983 3.8922431950426057 2.6435673355281497 Ga
atom 14.9224594208473000 0.8842183991507494 13.4870681697513213 Ga
atom 6.8220134867440905 7.6489475122262895 5.2543337298916830 Ga
atom 8.1680492808109211 4.6723559954166225 0.0674242361690527 Ga
atom 8.2361795091015466 4.8455386967735539 10.8237410008456472 Ga
atom 8.1793572720472802 4.8992910632048545 5.4965046130302762 Ga
atom 9.9940911556783707 1.9769632463966804 16.1333971249501715 Ga
atom 9.9343173140702650 1.9939846872462161 10.7861778251352547 Ga
atom 9.9967950919244704 1.9897126108552596 5.3223937122590099 Ga
atom 0.0087572868743352 13.4199617920858110 0.2080359155498626 Ga
atom 16.5706193601469600 13.3686460390085902 10.8299516881712314 Ga
atom 0.0188125518054231 13.3855820426688190 5.5601577610141684 Ga
atom 1.7165370539555915 10.3956629934906264 16.1762658753716764 Ga
atom 1.6523478147740907 10.4570458288037713 10.8092005459689418 Ga
atom 1.6384263559786540 16.2446358102363320 16.1024003772953606 Ga
atom 1.7904651871390713 16.2694244151886629 10.8295539077182728 Ga
atom 1.7261300944076619 16.1487101775059152 5.3973821949725824 Ga
atom 3.3256051814466931 13.4105813214100849 0.0510498944430177 Ga
atom 3.2820486702238627 13.3959198641328712 10.7719723290523781 Ga
atom 3.2509171901215708 13.3108827978307787 5.4987883590044220 Ga
atom 5.0056975562181591 10.6351302456644365 16.1325650076827998 Ga
atom 5.0869875691209820 10.5056045324572036 10.8558228548404330 Ga
atom 4.9039397004646395 10.5906021593366741 5.3591355286880145 Ga
atom 6.6674211150857134 7.7704203928413564 15.9947030516827002 Ga
atom 6.5693829411695619 7.6187318835700495 10.6636882214756898 Ga
atom 0.0533379933301306 7.5830193062962428 10.7095951640498654 Ga
atom 16.4992843417636443 7.5375392595730384 5.3393938887314656 Ga
atom 1.6225719960952010 4.8160319752773226 16.1667861234073591 Ga
atom 1.5954366836585645 4.7742798493961995 10.7996006281159183 Ga
atom 1.6087873785035529 4.8851786630277712 5.3762336782513760 Ga
atom 3.3739885508724723 1.8825489566932383 16.0280217861240430 Ga
atom 3.4919398496368790 1.9592263660068889 10.4844012937727147 Ga
atom 3.2741059333096412 1.9100364766189839 5.2104260315649453 Ga
atom 16.5779685839531368 1.9293769163515198 16.1203383882923781 Ga
atom 0.0900896561028689 1.8238099802524244 10.7734328994718407 Ga
atom 16.5278659972905224 1.9840619830144088 5.4388852314998770 Ga
atom 1.6313425839357372 10.5526462879205507 5.2174497190287923 Ga
atom 3.3442835053992326 7.6215393695866602 0.0400145718559556 Ga
atom 3.2029520379553094 7.5467438606717785 10.8505569508408648 Ga
atom 3.3322309411628068 7.6305463832833054 5.3531999980353966 Ga
atom 4.9241334584971250 4.8858288896355404 16.0983080965034624 Ga
atom 4.8218033213543601 4.8525810335271000 10.7668609541790001 Ga
atom 4.8848120537809328 4.8037327166312274 5.3709591217082320 Ga
atom 6.6696918930687890 2.0345797563107197 16.0462192269156390 Ga
atom 6.7636003492301784 2.0501242747529811 10.6062784378659476 Ga
atom 6.7290503385864460 1.9549951725624566 5.2651197785202912 Ga
atom 0.0666178984440249 7.6136662009890470 16.1389706433499924 Ga
atom 14.9222800800582558 10.4870273356086230 5.4589672412388790 Ga
atom 8.4780916876571553 16.2891112853321154 0.1112650685533367 Ga
atom 8.4083653000605114 16.4054577980000396 10.7694514096080916 Ga
atom 8.3094626612357292 16.3656449269800355 5.3236654618993331 Ga
atom 10.0612699430627526 13.4384256529521000 16.0927562343247246 Ga
atom 9.9167419099213863 13.4397737769920873 10.8717649397048568 Ga
atom 9.8377163723185532 13.4296716189509926 5.4049635312334630 Ga
atom 11.5280041353854621 10.4147123891100630 0.0055134372603579 Ga
atom 11.4844260554248372 10.5174366740963467 10.6814879510931888 Ga
atom 11.6364659119342839 10.6350871899697541 5.2760144622329834 Ga
atom 13.3358634392304722 7.7152811870560800 16.0591563234820178 Ga
atom 13.3443771586598370 7.5945018697509949 10.6985550520985289 Ga
atom 14.7632574818260398 16.2497931768378265 0.1159666960663471 Ga
atom 14.9464747337722574 16.0336276324363283 10.8342041144604941 Ga
atom 14.9923767061032915 16.4720650847941954 5.2698940635562010 Ga
atom 11.6760634085651844 16.3243646005316698 16.1102193741554522 Ga
atom 11.6369352693598991 16.3749635320409297 10.7799701445237037 Ga
atom 11.6611252968654941 16.1172709844334285 5.4699504653769058 Ga
atom 13.2073682727810802 13.4033343199310213 16.1622602134741236 Ga
atom 13.2893428334798305 13.3473791331714917 10.8370459264367085 Ga
atom 13.3289050912614240 13.3754182244860029 5.4614603725058535 Ga
atom 14.7227925778471533 10.5084095000164393 16.0511611946127566 Ga
atom 15.0014389564838542 10.5880341290253739 10.8018467257343787 Ga
atom 8.2580844365445945 10.4625791033040549 10.7109410487300103 Ga
atom 8.1317174786936288 10.5761379204811075 5.3308811948741797 Ga
atom 9.9123467606963995 7.5661870523902168 0.0759530947781879 Ga
atom 9.9102939330200357 7.6015853042716168 10.7972338580923903 Ga
atom 9.9747778986966456 7.7230132341304119 5.3765813324334042 Ga
atom 11.6274046905195885 4.7380953586979215 16.0747077210360949 Ga
atom 11.6815659952257924 4.7305135555876703 10.9153737299284774 Ga
atom 11.5198792946992903 4.7902655832689023 5.4162169218887675 Ga
atom 13.1540461144327896 1.8330544163569449 0.0786733431952134 Ga
atom 13.3342119048914913 1.9483155983378391 10.9706027766559799 Ga
atom 13.1856003074517307 1.8910620482370883 5.3675072895301801 Ga
atom 13.2454777499116023 7.5968422499377359 5.5582602265958361 Ga
atom 14.9481816350758443 4.8706406054259084 0.0529122764514558 Ga
atom 15.0104521044211001 4.7181357229927849 10.7472722549189950 Ga
atom 14.8174954430452530 4.7965868758990320 5.3541796608216901 Ga
atom 5.1272710791105505 16.2843799446965356 0.0301427216573731 Ga
atom 5.1612965520959753 16.1572362839902652 10.7665509369548307 Ga
atom 8.2946896823185376 10.4859136057000466 16.1672335909714846 Ga
atom 6.5461475011632926 13.4462154191534715 5.4005008562514405 Ga
atom 6.6760347104427522 13.4837159704083014 10.7665606957225730 Ga
atom 6.5794849753262525 13.3892986759821042 0.1030890449577684 Ga
atom 4.9844013866615633 16.4035503076815452 5.4365747779051841 Ga
atom 3.4153260149005091 9.4564061695639481 10.1332910163016887 N
atom 3.3240024784311526 9.5969080567970053 15.6207366074712191 N
atom 1.5736143747086151 12.4438126785453118 4.7125896558123870 N
atom 1.5420363770653946 12.4367127845881882 10.2776106362736410 N
atom 1.6510284040836889 12.4059823594297374 15.5562504917707685 N
atom 0.0992642138959198 15.3083077450836047 4.8420992675926442 N
atom 3.2869678915893457 9.5165982968599252 4.7304082179059481 N
atom 4.9967548620338365 6.7111392463993385 15.5144200797783096 N
atom 4.7974992757776782 6.6715181818543101 10.0569037202054563 N
atom 5.0950187270894185 6.7226351078275508 4.6786604133574308 N
atom 6.5395239440308615 3.9624332522203511 15.4252411086623500 N
atom 6.5470155425962124 4.0122860654970447 10.0716991887852352 N
atom 8.2391066493641230 6.7044750483056186 15.5070502553654936 N
atom 8.2362177873771483 6.6284158967273585 10.1449931873584855 N
atom 8.3630472348591969 6.6911132373712512 4.6488160897286424 N
atom 9.7870535642691632 3.9118570362105762 15.4910161984037202 N
atom 9.9648019961494718 3.8125774814177475 10.3404196145727525 N
atom 9.8594283977048267 3.8968099764217539 4.7236675298043869 N
atom 11.5258781205069862 0.9647005259251618 15.5778704216882371 N
atom 11.5396532412818384 1.0157440548779761 10.2678669363913766 N
atom 11.6427009776512005 0.9198271717673132 4.8603855739056403 N
atom 16.5131476823579568 15.2891466759585342 15.5517801336989567 N
atom 0.0859741247314036 15.2780419391883253 10.1086623183242583 N
atom 3.2613639550280418 3.7521459939712902 10.1025165716759080 N
atom 3.3948355158568333 3.8494776350973132 4.7378355391735640 N
atom 4.9834602329635143 1.0064857499908983 15.4358340123835234 N
atom 5.1311983634514293 0.8648364018547254 10.0447213301495832 N
atom 5.0822607092664347 1.0634753441030589 4.7054109352564346 N
atom 16.4910763708052386 3.8838219560572398 15.5239185153582273 N
atom 0.0789578095977464 3.8335032136319480 10.2882097175970380 N
atom 16.4221202477636545 3.8819292544002244 4.7823616475512774 N
atom 1.6286485444493450 1.0279174549158843 15.5034103126360332 N
atom 1.7541933744842524 0.8742437721430925 10.1970973252980226 N
atom 1.6073006604992282 1.1322227054043688 4.6328567071621212 N
atom 6.5981686682319944 3.9843313126866331 4.6894341814675942 N
atom 8.1311411168689780 1.0610672274196240 15.3913946270173074 N
atom 8.4450223026089422 0.9746388972777694 9.9832724739480927 N
atom 8.2133012802688778 1.0141130912029237 4.5784579529877085 N
atom 0.0106396263627561 9.5815429308994720 15.4478021361931148 N
atom 0.0494882580294814 9.5271641177129425 10.0700504731083615 N
atom 16.5064752291388146 9.4708927042930089 4.6920402159933561 N
atom 1.6146681902215743 6.7351326048304205 15.5362522188493006 N
atom 1.6413541038610109 6.6922918124222690 9.9593802189103080 N
atom 1.6192675635966127 6.6473653183778341 4.7610886224886668 N
atom 3.3336241367226194 3.8782936688226850 15.4731708347693591 N
atom 11.5221855194267864 12.5661475498138042 4.5972325088176342 N
atom 13.2145392901729473 9.5064882361380967 15.3631631731958542 N
atom 13.2981259570903116 9.5599216392335755 10.2230732330370557 N
atom 13.3389125998556288 9.5960684750984466 4.7834819361705971 N
atom 14.8880106975102393 6.8745131062708813 15.3210337119129996 N
atom 14.7819296759431555 6.5787494446359220 10.1369599445641327 N
atom 14.7941840511942200 6.5840022230376345 4.7574200811544483 N
atom 6.6521345889355432 15.3407593218127047 15.7362143094630405 N
atom 6.8893024311270423 15.4442312608601569 10.0490018537687220 N
atom 6.5186378493886288 15.3899403637984289 4.7321755204755469 N
atom 8.2081859566076165 12.3930224882924911 15.5182277734797474 N
atom 8.2170940673247692 12.4431245327746787 10.1619149389656727 N
atom 13.3362044864492120 15.3024734721787414 15.5604685180050026 N
atom 13.2947854220882054 15.3357558258929902 10.2106583460979188 N
atom 13.3260069266778096 15.3592480392070989 4.8479651717904710 N
atom 14.9375477754199295 12.4335838440110162 15.5848272408491120 N
atom 14.9892626053699995 12.3691467354117801 10.1567557381034916 N
atom 14.8642791340961846 12.2627879817832195 4.7419105668691204 N
atom 9.9444205099056724 15.3148196045910989 15.4977853687091134 N
atom 10.0900795544771107 15.3821578333111617 10.1908294870793288 N
atom 9.8832248958864231 15.3549040249205184 4.8117163787356532 N
atom 11.7226395768674507 12.2899161662770346 15.4104781735183032 N
atom 11.6980671871621826 12.4327997622245423 10.2027301409940634 N
atom 14.9905929685388681 0.7887237279994105 10.1896750528216629 N
atom 14.9316398749656063 1.0724772224769041 4.6943598434344436 N
atom 3.3425451743804415 15.3361824151719173 15.5265971834266860 N
atom 3.3982732422629960 15.2531626212999178 10.2334208461413674 N
atom 3.3750361803611555 15.1695209396767865 4.7986912017686922 N
atom 4.9707749122454628 12.3709233306719817 15.5364477510504990 N
atom 5.0170206463598825 12.4498845757149628 10.2142918661719282 N
atom 4.9783256557072679 12.4342729476771687 4.8046112905122467 N
atom 6.6440362652087233 9.6221152097637148 15.5213001706543992 N
atom 6.6935082215808155 9.5741422922749173 10.1851151490787064 N
atom 6.7201428615500740 9.5671216823752552 4.6514045339313101 N
atom 8.1731151990214865 12.5486311022010284 4.7298959810846686 N
atom 9.9713130865650328 9.4648928185689947 15.4949043269954743 N
atom 9.9308566956277318 9.5320266088431360 9.9705191615680704 N
atom 9.8002973575167900 9.6219813720496781 4.8024075239113202 N
atom 11.5572727382760192 6.6627406252063057 15.4823989671175948 N
atom 11.4971915081309604 6.6035813854182157 10.1447893583206561 N
atom 11.5596016061001574 6.6764486711515048 4.8795714485963613 N
atom 13.3900430793555589 3.8853400182080455 15.5821789507332547 N
atom 13.2541276602154774 3.7279508091731008 10.1865743723518101 N
atom 13.2148439378950293 3.8531056187368238 4.8064377927276709 N
atom 14.9477682749973599 0.8783358070771354 15.5066210927923844 N
atom 6.5036189749692470 7.6149949028059050 1.7786859910751163 N
atom 8.2982486984679866 4.9135863183107906 12.9005450430955335 N
atom 8.3465651182013421 4.8459295217305174 7.4751822338217915 N
atom 8.1703103748759585 4.7868283107630463 2.0377091291366263 N
atom 9.8423239518824239 1.8846959535899082 12.8873824048313157 N
atom 9.9465473138161435 2.0841051691600128 7.4101805800848339 N
atom 9.9476930406203401 1.9090735481885222 2.0770762226930337 N
atom 0.0552625228693979 13.4049165702613831 12.8062082299162245 N
atom 0.0983189211427946 13.4476603432786348 7.3807690699075854 N
atom 16.5167138601527093 13.3259576817402490 2.1843694871255059 N
atom 1.6997380618067479 10.5685204537677748 12.8711801158382873 N
atom 1.6332304245427700 10.5109243713834779 7.4181376220752444 N
atom 1.6118775476076488 16.2136378020868719 12.9617259471192785 N
atom 1.6654467346540665 16.1973860150923308 7.4496585280389178 N
atom 1.6488474209810036 16.2411431866305165 2.0392047027442706 N
atom 3.3437594093241558 13.4758854240317749 12.7812604804160319 N
atom 3.3262239007252750 13.3040449912105068 7.4771137403769359 N
atom 3.3901555458447570 13.3964895323556377 2.1977529569311862 N
atom 4.9072564097056341 10.4546554727936929 12.8339532156139651 N
atom 4.9139001736352137 10.3553492819948563 7.3303107971901591 N
atom 4.9922523477788046 10.6623239629784994 1.9613610879322152 N
atom 6.4967125280337568 7.6285358830740506 12.7233098121675123 N
atom 6.6336493779406069 7.6690106686476094 7.2925098586147596 N
atom 16.5467443712011963 7.7063813505491261 7.3643186535485414 N
atom 0.0188075037746335 7.5533668131612677 2.0188748805052077 N
atom 1.7795398868035950 4.7711287383952552 12.7997770979626804 N
atom 1.6883953066880431 4.6954036427948953 7.3367105607450140 N
atom 1.7051550528501440 4.6102657661454218 1.9893163601474959 N
atom 3.3950435216142814 1.9298527803145977 12.6432452544829150 N
atom 3.2567861001371692 1.9336075612258952 7.3291652368943323 N
atom 3.2900919600182377 1.8457273917657395 1.9822343033799597 N
atom 0.0344079653330461 1.8266051666803631 12.8433464216444460 N
atom 16.5248985083727113 1.9464866522150854 7.6014934720870260 N
atom 0.0244457287301197 1.8908403914571585 1.9953162432443821 N
atom 1.6336034965164188 10.4981502063483934 2.0445534617161889 N
atom 3.2435660637090074 7.6423015438703290 12.8958855228275873 N
atom 3.3699661300386343 7.6661323301915303 7.4193816836980062 N
atom 3.2447153848540151 7.5735632440849532 2.1041807718374033 N
atom 4.9663004269250965 4.8595444145204763 12.8531566660331915 N
atom 4.9217354819999315 4.6950227584060622 7.4536133584292221 N
atom 5.0801070181846066 4.7103794226521476 1.9631739045586101 N
atom 6.5253477110958453 2.1178730939843065 12.7288359223887824 N
atom 6.8376267557170420 1.9532876306082678 7.3353124812255368 N
atom 6.6481187599608234 2.0220619470162386 1.9232117700934630 N
atom 0.1452485222325735 7.5483771158633139 12.6658376261192824 N
atom 14.8299247193644170 10.4803426226352823 1.9284534587816404 N
atom 8.2734673061486426 16.2386201436943480 12.8427871399220201 N
atom 8.3982621090935456 16.1984368645341661 7.4113716466147865 N
atom 8.3335859815851592 16.3893903360918110 2.0542763048809962 N
atom 9.9606087093803453 13.3325139208567727 12.9019868880006943 N
atom 9.9222828625802979 13.4021210912139956 7.4816173697719215 N
atom 9.9851712388538267 13.3853524358668619 2.0341889595215941 N
atom 11.4255070083598920 10.5626981825083206 12.7237372810745910 N
atom 11.5165751550506208 10.6180419129238128 7.3591525312956376 N
atom 11.5278196026956223 10.4127176381781386 1.9331762781195512 N
atom 13.3431183409106247 7.5635759070168778 12.7843920814045902 N
atom 13.3364155505221369 7.6593500303827611 7.5724248237836349 N
atom 14.9649164363165639 16.2698705950322378 12.7602656595396766 N
atom 15.0200705642573560 16.3258369459770947 7.3222137294074656 N
atom 14.9183896464746173 16.2001063498581424 2.0745951468074253 N
atom 11.6704604721857557 16.2869950542232509 12.8305084552612065 N
atom 11.6683882283384737 16.3032604718177403 7.5832722137776756 N
atom 11.6481796055980382 16.3535701807318574 2.0260293109184881 N
atom 13.2817731545598132 13.4869883591615629 12.8299906278715632 N
atom 13.3837134407270728 13.3579307835735666 7.5241238266605164 N
atom 13.1146085639659766 13.3837129934112529 2.0252770053885909 N
atom 15.0925326448473225 10.4843175143150944 12.9267675739800723 N
atom 14.9676165187838599 10.5555005757967457 7.5279569640271990 N
atom 8.1817505944134972 10.6349668917985891 7.3644155768621404 N
atom 8.1286338031470855 10.6121077012643887 2.1723513162910555 N
atom 9.8627446842713429 7.6600619061411317 12.8160239797951228 N
atom 10.0030971050392292 7.6418137746677273 7.3853009855759666 N
atom 10.0634151612633467 7.6560899438004570 2.0362197120285690 N
atom 11.5881590133085304 4.7274748919558407 12.8966214097225009 N
atom 11.6618456826797221 4.8124741428724311 7.5104254834902564 N
atom 11.5767458171315720 4.8453778800127463 2.0088110730620214 N
atom 13.3115238420311890 1.8188748006577939 13.0484559629956003 N
atom 13.5148952116430632 1.9048473310659211 7.4380236105261259 N
atom 13.2749912116741164 1.9119054486593261 2.1039240581305991 N
atom 13.1490777598771409 7.6834304753886329 1.9746058578453520 N
atom 15.0099915775857671 4.6924374459730247 12.8136123123822330 N
atom 14.9291296694458921 4.8522929685445204 7.4665172529234578 N
atom 15.0011028068529360 4.7367848179869210 2.1645519012149435 N
atom 5.0561843398712512 16.3980576581950110 12.8606842506755683 N
atom 5.0002432773788499 16.3054160860275950 7.3086767245029893 N
atom 5.0320612219481458 16.2906672024295993 2.1218181700194760 N
atom 6.7189421096400146 13.2470116350921554 12.9713501543296967 N
atom 6.4598895318951195 13.5030913579669090 7.4727043208439667 N
atom 6.4572197152796811 13.3125825848445292 2.1581231839406576 N
atom 8.1941998042503474 10.5645518392595559 12.8140711958492624 N
