#===============================================================================
# Created using the Atomic Simulation Environment (ASE)

# Thu May 11 09:00:42 2023

#=======================================================
lattice_vector 16.5841519999999996 0.0000000000000000 0.0000000000000000 
lattice_vector 0.0000000000000000 17.2347563186669994 0.0000000000000000 
lattice_vector 0.0000000000000000 0.0000000000000000 16.1779175999999900 
atom 0.1833212624097890 15.3001188673980710 2.7175206813688608 Ga
atom 1.5723196590767909 12.4535737301225282 13.5850881716226688 Ga
atom 1.6597020159604099 12.4641160472760202 8.2632591711159584 Ga
atom 1.6736827876426308 12.4662646356411209 2.6139124193190755 Ga
atom 3.3316775859171184 9.6917675911072081 13.6363674538109017 Ga
atom 3.2879651786506061 9.4777262710918748 8.0455286431862039 Ga
atom 3.4785373336841614 9.5452734852234773 2.7573631732095305 Ga
atom 5.0865452565652616 6.6768640760516531 13.3598725104796685 Ga
atom 4.9251719641714660 6.6903893982648253 8.0904975689432010 Ga
atom 5.1050234235296967 6.6186433872242398 2.7931227703241945 Ga
atom 6.6278018249684241 3.8199207190562778 13.4908440261159353 Ga
atom 6.5379584128624728 3.7398071051503576 8.1404569789429591 Ga
atom 8.3500694435665057 6.6424723570069508 13.7023272844443760 Ga
atom 8.2859833086664629 6.7531675162516480 8.1031738550136936 Ga
atom 8.3414504740165025 6.8294340765676784 2.7574491101992682 Ga
atom 10.0651454472992228 3.7560777265583973 13.5095629779235971 Ga
atom 9.8063431446856164 3.9859482445426417 7.9637889397522157 Ga
atom 9.8644084403940120 3.7291644390688918 2.6760521056194375 Ga
atom 11.5884853164703525 0.8783795131229335 13.5235440807152596 Ga
atom 11.4417504577225166 1.1006016458707673 8.0992293179701953 Ga
atom 11.5296924944231698 0.9446607895613690 2.6724302681770560 Ga
atom 16.5538615172131571 15.2271865501355173 13.5440458154928915 Ga
atom 16.5777918948714884 15.3358339631661380 8.1719078394989406 Ga
atom 3.2317992942271832 3.8473898159311375 8.0359904413846852 Ga
atom 3.3755049677022333 3.9133951049559834 2.6748993644953893 Ga
atom 4.8921265417588433 0.7289939915891324 13.5732398271653878 Ga
atom 4.7457058919789832 1.0072631541195041 8.0703769854421825 Ga
atom 5.0031430601101841 0.9110860893815593 2.6257717801094484 Ga
atom 16.5150534396086606 3.7672530588568032 13.3646430306697042 Ga
atom 16.5807665718589625 3.9268004876136291 8.1132366214614322 Ga
atom 0.1014698494052314 3.9214740583042271 2.6657378922620065 Ga
atom 1.6116020991867277 0.9067471028977168 13.5566464130642661 Ga
atom 1.5228132444299647 0.9568672916000097 8.0805017276277411 Ga
atom 1.7616466949292282 0.8718733946173836 2.7278882419385955 Ga
atom 6.6053473235660132 3.6845869548234735 2.7667890966505380 Ga
atom 8.1828171501926725 0.9235645192539813 13.4756112455146901 Ga
atom 8.1741712357340823 1.0845502592918157 8.0352805178211142 Ga
atom 8.2070668263409949 0.9123870141731207 2.6446189053338758 Ga
atom 16.4968257221643384 9.4631286540239703 13.5739811119132661 Ga
atom 16.5611041132619725 9.5793316107396382 7.9929223295038909 Ga
atom 0.0800854651292995 9.5729256678546957 2.7730807636175316 Ga
atom 1.7363672934667667 6.7820521910131850 13.4443220960805156 Ga
atom 1.5421153382771791 6.6694951803971527 8.0770609494512815 Ga
atom 1.7846307658758975 6.6496518399645224 2.5472980425190093 Ga
atom 3.1806862905988247 3.7187734592438013 13.4393029867741767 Ga
atom 11.6670068499800212 12.5013939635283862 2.6123304135062533 Ga
atom 13.3739295858694245 9.6701601835955486 13.3911996042027912 Ga
atom 13.2847843609174276 9.6646727106699277 8.0761890810841326 Ga
atom 13.2102354683632051 9.4746013232951825 2.7700539140371450 Ga
atom 14.9576174717459036 6.7671715688815457 13.4866290044498971 Ga
atom 14.8155208596897410 6.8294070775597842 8.0742766499578984 Ga
atom 14.8687418208022120 6.6225810252600974 2.7968594297158740 Ga
atom 6.6140941206444666 15.1940956544792733 13.3311335256099106 Ga
atom 6.5962140733955090 15.3997727997372582 7.8965917305997255 Ga
atom 6.7056033022485106 15.3333841606228258 2.6428760750120608 Ga
atom 8.3499302047742834 12.5573647736841352 13.4890776588579211 Ga
atom 8.3191666367862567 12.4580075890750503 8.0253972803121556 Ga
atom 13.2124874603076297 15.4521449972950382 13.5536648965003952 Ga
atom 13.1593370376154866 15.2845130372670805 8.1130770934588430 Ga
atom 13.3532315105117654 15.2672869728203597 2.7606883601378822 Ga
atom 14.8648999848988392 12.4900327083759350 13.4412997610431635 Ga
atom 14.9952421627369112 12.5171214326914804 7.9934433537047340 Ga
atom 14.9479670925750501 12.3773285092590797 2.7457250255523968 Ga
atom 9.9046331820437281 15.4323138354324136 13.4037225946081531 Ga
atom 9.9032508809191757 15.1782640837451037 7.9438177881837406 Ga
atom 9.8789594240271619 15.2182460669112594 2.6090907484395229 Ga
atom 11.5712806530263794 12.5371132589574277 13.3960215680094255 Ga
atom 11.6496233290294278 12.2759196929459335 7.9710266731888328 Ga
atom 14.8276046968285957 1.1285160953352014 7.9899051950894933 Ga
atom 14.9967311409944823 0.9836494215996571 2.8692224477901087 Ga
atom 3.3295978453017709 15.3237288870862418 13.5076950528749276 Ga
atom 3.2466787213016652 15.2093232568388199 8.0448220915263011 Ga
atom 3.3780881096698572 15.2656596369224271 2.6439441445665848 Ga
atom 5.0171672017620494 12.3630971914754788 13.4056265087704958 Ga
atom 4.9621582425237989 12.3294717942920524 8.1931636460642761 Ga
atom 5.1103607492680343 12.5050406819950073 2.8023335257596900 Ga
atom 6.7184211403265266 9.6778861995433889 13.5156120187740072 Ga
atom 6.6973968872024727 9.5657347757018059 8.1088061459689502 Ga
atom 6.8002822095802902 9.5734001736016054 2.7806610221357935 Ga
atom 8.4388036225574297 12.4900580856380703 2.5365189956504293 Ga
atom 9.9018128585200600 9.6628798183335931 13.5823055460432123 Ga
atom 9.9706517465529725 9.5909834159498732 8.2938121725187131 Ga
atom 10.0515009829403201 9.6539137178144401 2.6343964082722811 Ga
atom 11.6349223900001579 6.5742139702958964 13.4086919870121744 Ga
atom 11.6392815069712654 6.7144619649450847 8.0950131167079586 Ga
atom 11.5193707946450044 6.6277057247683882 2.7215248603601871 Ga
atom 13.3457827627685841 3.7930668865957058 13.4422944413849432 Ga
atom 13.1451768451426059 3.7717905252880297 8.0369669699115338 Ga
atom 13.4128334159681248 3.8213340707830827 2.7599312489368542 Ga
atom 15.0822092664911107 0.8648326924008882 13.4170721789992342 Ga
atom 6.6242924436493906 7.6135273170762385 5.4457009588541920 Ga
atom 8.3946756917500984 4.6067671329555253 0.0849212349680147 Ga
atom 8.2353312624311918 4.5611406290947594 10.9736697949656890 Ga
atom 8.1433446304509474 4.7198271848347062 5.4181508231073634 Ga
atom 10.1851505304001169 1.8619210362871306 16.1255186260052028 Ga
atom 10.0443986132003218 2.0237945227904031 10.6307469181190566 Ga
atom 9.8519214395418544 2.0165973742639625 5.2825345331501676 Ga
atom 0.0009270166831189 13.4670178623782366 0.0268475481436333 Ga
atom 0.1367312937404298 13.3283228412395935 10.7953588101895512 Ga
atom 0.0120336035557091 13.4055382395804195 5.3968678384466067 Ga
atom 1.7142173448066760 10.5436670420899627 0.0581874507257354 Ga
atom 1.6180783131493737 10.4860049371985937 10.8616447766385935 Ga
atom 1.5739479114304302 16.2050242968121943 0.0768216932017004 Ga
atom 1.7045222555597288 16.3062903051094565 10.8125702964286301 Ga
atom 1.6131700948488292 16.2972410754588815 5.3943195747454453 Ga
atom 3.4169201402264582 13.3558735841197791 0.0438985321151871 Ga
atom 3.1983685145415799 13.3248337616698009 10.8047116724697485 Ga
atom 3.2666880012217612 13.4449546666194717 5.3858995906128069 Ga
atom 4.9804097170149539 10.7020780677145542 0.0712946685838193 Ga
atom 4.9271492705681181 10.4853612797867513 10.7425297774133899 Ga
atom 5.0270284057933665 10.5641835926942473 5.2641273160873716 Ga
atom 6.6721168072394006 7.7624428037105835 0.0870251219557420 Ga
atom 6.8389258514381748 7.5192813577011108 10.8082704765974658 Ga
atom 0.0548241175533212 7.6372556369714566 10.7998725849067956 Ga
atom 16.5320632903101661 7.6402035010749696 5.3800907794697670 Ga
atom 1.6697705815543746 4.8130289325291296 16.1016694486107355 Ga
atom 1.6245936002671884 4.7280935081489996 10.7664579860114458 Ga
atom 1.5635750928908365 4.9092481660725706 5.3969316699978442 Ga
atom 3.3542413930257156 1.9691877097128614 0.0907407508288171 Ga
atom 3.2051281902638413 1.9464358435283533 10.8337417854461364 Ga
atom 3.2719923722737412 1.8228004289784143 5.3784466569293823 Ga
atom 0.1642883988336490 1.9587467185499776 16.1607496055699187 Ga
atom 0.0036019055465211 1.9487246169633192 10.6727429917440997 Ga
atom 16.5427057102237391 2.0144025282120612 5.3754996591347437 Ga
atom 1.6472574707559526 10.4823116429019070 5.3154402729742838 Ga
atom 3.4095091005922509 7.6528175907794989 0.1769200028139032 Ga
atom 3.3054179673952113 7.4938264921110340 10.7492495820670442 Ga
atom 3.4150105530892390 7.6277882957780880 5.4137008919932592 Ga
atom 4.9478538556081002 4.7682184560566760 16.0359225122571800 Ga
atom 4.9535653236962487 4.7300609230542605 10.7963390253609717 Ga
atom 4.9030493936792743 4.7423906622253691 5.4954035929783203 Ga
atom 6.5774527655789452 1.8521411602960218 16.1309340545010507 Ga
atom 6.5348962618718831 1.7945751505100467 10.8436128405112306 Ga
atom 6.6137858961969309 1.8773297629128320 5.3756102998028767 Ga
atom 0.0142867125311647 7.7127137538193011 16.1586253085250675 Ga
atom 14.8352884148135757 10.4421654755512208 5.4749754934842461 Ga
atom 8.1661065682311111 16.3226429192261406 16.0030939717959981 Ga
atom 8.2367413691920994 16.3885508587474611 10.6915727020799078 Ga
atom 8.2132893857407581 16.2434374444627601 5.3654385928326178 Ga
atom 9.9545594461664599 13.5267240981791819 16.1087448388640091 Ga
atom 10.0203070149607818 13.4029431961611252 10.6202799253361100 Ga
atom 10.0101188122329532 13.4166019349251791 5.3190355117042412 Ga
atom 11.7194789760550808 10.6882836991637458 16.1316508741909352 Ga
atom 11.5201691040833829 10.4289191077333818 10.8058707518584338 Ga
atom 11.6204931718948554 10.5422511257536904 5.4352105675880917 Ga
atom 13.2987223024396730 7.7339017846801843 16.1688479375924850 Ga
atom 13.3350764597850659 7.7137216505087922 10.7724121354888815 Ga
atom 14.8730589221461234 16.3500931228444273 0.0707695722419259 Ga
atom 14.7776132803253919 16.2532895548939820 10.7765577202279932 Ga
atom 14.9792117934601787 16.3418764873422511 5.4320602567132612 Ga
atom 11.6274408280521531 16.1825388267389307 0.1231635627364573 Ga
atom 11.5149458617079379 16.3413971629429184 10.7327305157770692 Ga
atom 11.5982733096568591 16.4556037294200657 5.3561118855987218 Ga
atom 13.3821085081888871 13.5090250212827403 0.1200818344367687 Ga
atom 13.1947659075432782 13.4368085606398200 10.8064245372072882 Ga
atom 13.2412279052208266 13.4253709656488454 5.3125555087054650 Ga
atom 14.8534640443423420 10.4421137062529450 0.1837015226116439 Ga
atom 14.9770909882059833 10.5405054256548532 10.7603937649254213 Ga
atom 8.2117154166827007 10.5123147759512001 10.7907130861231018 Ga
atom 8.3155729645274050 10.5390654342744750 5.4402730750857113 Ga
atom 9.9076885941381168 7.5402584187566397 0.0300077223264539 Ga
atom 10.0381690572032198 7.4019045984213117 10.8265326720060120 Ga
atom 10.0278445783878585 7.6994731555588105 5.4156076639860391 Ga
atom 11.7245908534317120 4.8248482633384722 16.1627777586736450 Ga
atom 11.6893248664987670 4.8460498124111133 10.8449651337927424 Ga
atom 11.5724710627924132 4.8507774673216684 5.4112016449169111 Ga
atom 13.4205675000142719 2.0203908201208436 0.1011845658288931 Ga
atom 13.3393399952291531 2.0430819850110242 10.8070048195468349 Ga
atom 13.1579424042068762 1.9738107088773689 5.2844227683207565 Ga
atom 13.1939143155837861 7.5721277984961617 5.3684429987136610 Ga
atom 14.9764421647448245 4.9201945868668311 0.0239437403375946 Ga
atom 14.9017925657632588 4.8198929553632812 10.7467925854779551 Ga
atom 14.9030114949239998 4.8277217556880263 5.4468305458741799 Ga
atom 4.9052207234258596 16.2305730510907225 16.0659742789654310 Ga
atom 4.8116568505323833 16.3171914890935774 10.7540902913384304 Ga
atom 8.3143588105458619 10.6186160223343986 16.0623961698381663 Ga
atom 6.5016043771991479 13.4206317203608751 5.3950748310843180 Ga
atom 6.7549475035348818 13.5324149310949817 10.6744363034568206 Ga
atom 6.6833924436650465 13.3708848741115016 16.0981771064984578 Ga
atom 4.8617865943843741 16.4118381693700854 5.4159579354254292 Ga
atom 3.2503895394298685 9.4869316260062835 10.1597515368761560 N
atom 3.3853228951955350 9.5873279841343866 15.6233980280903992 N
atom 1.5955488775769131 12.5152040505033835 4.6734546051388266 N
atom 1.6578249392698690 12.3111197045538834 10.1493335731395895 N
atom 1.6009078219318718 12.4249546153459534 15.5104084117370764 N
atom 16.5793091191741553 15.2368973790313280 4.6935206571711330 N
atom 3.4480871983762058 9.5305308503648991 4.8008729361756703 N
atom 4.9597914179425038 6.8004003427055340 15.5547224776912092 N
atom 5.0074275768611685 6.7068656878615638 10.1704261424526852 N
atom 5.0470733381255828 6.6256862429685208 4.7990966774380874 N
atom 6.6041411063771873 3.7660386358092537 15.7436776643683878 N
atom 6.6587601486136148 3.7016398500251775 10.1355782732803128 N
atom 8.2936801278532410 6.5810093815625592 15.5876840067090630 N
atom 8.2865942778230455 6.5820784367667109 10.1877853457273471 N
atom 8.3890177789285154 6.7630871074028560 4.7875574077901533 N
atom 10.1042991233217379 3.9354183788837149 15.5700404657315570 N
atom 9.8907087828784732 3.9164571530760779 10.1151997014677502 N
atom 9.9242949776341831 3.8134894812861639 4.8036980485357557 N
atom 11.7715182769344366 0.8347870718340921 15.4975572312745840 N
atom 11.7044631090837683 1.0410838651490548 10.1591834873237232 N
atom 11.4614587116960092 0.9409516698100733 4.6528181639688437 N
atom 16.4228575545641284 15.3698283259685535 15.6324479077709206 N
atom 16.5459933867702880 15.2823075244304309 10.1479012490419915 N
atom 3.3870920489644938 3.8397082988997537 10.0936238829691636 N
atom 3.1930582449047531 3.8428783995917661 4.7863687306307225 N
atom 5.0527409532566958 0.9529453511068822 15.5737854162552090 N
atom 4.8059084086871504 0.9419443430656773 10.1214275931821724 N
atom 4.8237983188250064 0.9087618443395591 4.6246870136045581 N
atom 0.1151443779848751 3.8369504317805365 15.4320968944645216 N
atom 16.5659500836375564 3.8694372933000114 10.2359078357249764 N
atom 16.4950902033842191 3.7804728434530066 4.6890835277961056 N
atom 1.7917563133008509 1.0147120722785561 15.5433326975659707 N
atom 1.6239497003570040 0.9472185045566504 10.1313380071008137 N
atom 1.5659094547591204 0.9228026826191159 4.7934244514276747 N
atom 6.5325185829602859 3.7443806181898971 4.6753589330643539 N
atom 8.4049600629124495 0.9631799184411004 15.4910435234027233 N
atom 8.3010356693231291 1.0799708870424805 10.1585436321694438 N
atom 8.1523999798641942 0.9088528942471767 4.7215049123055302 N
atom 0.0316327834424216 9.6875423543813071 15.5786915096141794 N
atom 0.1065295216025845 9.5935598824525812 10.1396133330237266 N
atom 16.5696614787972294 9.5280042180387561 4.7410022069529747 N
atom 1.6320463166619572 6.8913541582764815 15.5178859204304160 N
atom 1.5629006459464896 6.6700839214571399 10.1311810614661297 N
atom 1.6302752163684573 6.7777328197926012 4.5768103666627891 N
atom 3.2885292064419032 3.8762256406606825 15.5821722846389701 N
atom 11.6671815932596985 12.3610902167309362 4.5913899385056691 N
atom 13.3480453077185572 9.5316538976297132 15.3881070639192412 N
atom 13.3011060730695121 9.6871157471051585 9.9470780900538571 N
atom 13.2307065104910233 9.5032714921900361 4.7960713825400507 N
atom 14.9567964768678952 6.8420895925449408 15.5093835234561066 N
atom 15.0445696283999304 6.7585887756504972 9.9794175954917765 N
atom 14.8718084158957726 6.6405047689096230 4.7398463725290600 N
atom 6.6217870815150155 15.2129070428998663 15.3641346525048341 N
atom 6.5393906633808241 15.4695951529205065 10.0652406771969485 N
atom 6.5732900539713652 15.4200929975963685 4.7606154606720885 N
atom 8.3869190095150383 12.4852305761171714 15.4202896364396160 N
atom 8.3875269835537019 12.4868863491482855 10.1467593048220124 N
atom 13.1868425507722318 15.4219665301991729 15.5610261927745501 N
atom 13.0678716717156629 15.4328295608769590 10.0648472615757640 N
atom 13.3164720685153224 15.3039454931500636 4.6696467067826868 N
atom 14.9371398003224005 12.4505445807802264 15.6143299169445875 N
atom 14.9584989358803284 12.4778169612560390 9.9874715227682991 N
atom 14.8800083238360017 12.3852023584498081 4.7758933720636145 N
atom 9.8577789677688585 15.4679430564439766 15.4299699070086778 N
atom 9.8351871070521941 15.2988749225148606 10.0258666964036696 N
atom 10.0259822791185638 15.4231834738758522 4.6878345499306766 N
atom 11.5617520186654552 12.6278006448441715 15.4791801731074568 N
atom 11.6023586770807743 12.3385685454084388 10.0428532572305418 N
atom 14.8689937274384256 0.9723913641356265 9.9986388893829190 N
atom 15.0045793507421994 0.9914754492983178 4.7875853025174981 N
atom 3.2319630566091284 15.2905317482519028 15.5880362378789439 N
atom 3.2252287307713496 15.3427285849971877 9.9927258644774586 N
atom 3.3509318273073632 15.3028498267925919 4.7431573232471314 N
atom 5.0882748733509997 12.5519516581686776 15.5031035638342907 N
atom 4.9667759514759311 12.3233131234070417 10.2020229328365311 N
atom 4.8884782914104941 12.5240437986656374 4.8148489622063950 N
atom 6.6622628289576040 9.5571947369922086 15.5487522914273093 N
atom 6.6302829821889997 9.5282619994409838 10.1135070266935578 N
atom 6.6239547519170525 9.5111143771374973 4.7147833922606797 N
atom 8.1781900145022330 12.4397268338893578 4.6769664339846404 N
atom 10.0410069605212247 9.5050068445344564 15.7189568717064070 N
atom 9.9912018917194132 9.4255136768558607 10.2158810949498147 N
atom 10.0304375700898323 9.7216962775988733 4.7812938259333713 N
atom 11.6623225292380592 6.6441969746541005 15.5718602419871228 N
atom 11.8109811565132521 6.7806116446347025 10.1164422008902832 N
atom 11.5627017165474690 6.6341690087325471 4.7322186338532939 N
atom 13.3292605533529418 3.8973705175617144 15.4752186098760145 N
atom 13.2988303649334796 3.8566692673849192 10.1748314409457166 N
atom 13.1876408442480315 3.8549552900170148 4.7365365501694559 N
atom 15.1023434857334635 0.9567366826209209 15.5609196857538077 N
atom 6.7305394495596893 7.7107296685275681 2.2148735109674571 N
atom 8.3559861125945112 4.7503413741934928 12.9552249939424051 N
atom 8.1863158447136772 4.8877130566460520 7.3596488342040542 N
atom 8.3145565760247830 4.9047440405704341 2.1589886434582679 N
atom 10.0247149255031651 1.9295893573775451 12.8285660364215719 N
atom 9.7990615157889138 2.1112795454547411 7.3370175680659964 N
atom 9.9479018286266996 1.8599659781053097 1.9871573949711105 N
atom 16.5211344476394579 13.3749224686969779 12.8791484070590911 N
atom 0.0063657916809957 13.4823652892609616 7.3132347030389688 N
atom 0.0261409793246293 13.4934834409341828 2.0138946778581008 N
atom 1.6764569225307964 10.4172742600644934 12.8596330689843938 N
atom 1.5563121863124929 10.6298614088481536 7.4294606768986524 N
atom 1.7003926524619895 16.2526012809770783 12.9823097945087866 N
atom 1.6763699438926560 16.3709606249870667 7.3080727375599519 N
atom 1.6825283414821848 16.3110971632152690 2.0313409708547812 N
atom 3.2244944749420639 13.3906463004285587 12.8647207348639174 N
atom 3.3028611459426851 13.2604166287487697 7.5330764446679099 N
atom 3.4215196897414430 13.3255444768545050 2.0067142797688975 N
atom 5.0249099021755139 10.5285272379786203 12.8537805816707404 N
atom 5.0175627241672798 10.5146617040916865 7.3721481179159012 N
atom 5.1088660035780649 10.5250425297915733 2.0486157615009173 N
atom 6.7443502197525582 7.6602311008400426 12.8579108267154609 N
atom 6.7648335096918952 7.7517709227305076 7.4031682970108745 N
atom 0.0667989157923247 7.5724546745147370 7.3444351944647632 N
atom 0.0689669431703885 7.6071763346891155 2.1001218930053627 N
atom 1.5432612445368274 4.7867373201498840 12.8323408005253441 N
atom 1.5744000523473440 4.7934351115832818 7.4546447519306156 N
atom 1.7397169136320243 4.8237388727113588 1.9313264640045400 N
atom 3.1537930005003574 1.8355148702600701 12.9454192979315117 N
atom 3.2818838537246910 1.8028326825530050 7.3736647766534604 N
atom 3.4170877324370403 1.9028931431098615 2.1040960739747190 N
atom 0.0399937476137513 1.9062822908272692 12.7413590789966875 N
atom 16.4135413096483873 1.9486512844512063 7.3697404785191161 N
atom 0.0988700067507618 1.8944544166814867 2.1383201672213930 N
atom 1.5688102096085017 10.5355217114933808 2.2272539269867866 N
atom 3.3853343366290320 7.6419811887005693 12.8114836591643542 N
atom 3.2607705878810958 7.4746584092749950 7.2841664085003668 N
atom 3.4948459117457542 7.6535321601408723 2.0690759019784704 N
atom 4.8921545043811152 4.6042212132022096 12.8426753122287884 N
atom 4.9845277975503546 4.7474551610416142 7.5533088448954731 N
atom 5.0019607236348858 4.7560323651420120 1.9530708115195330 N
atom 6.5465593059589420 1.8226071979215670 12.9745598129234363 N
atom 6.5625517541087408 1.8904806557216420 7.3103727956520528 N
atom 6.7400966777177995 1.9639443313104592 1.9706850184711653 N
atom 0.0752762032172742 7.6399227844676867 12.7529284586985092 N
atom 14.9969364317565930 10.3802456923147890 2.1277260439756271 N
atom 8.2927164670399751 16.2283951588923969 12.5968663356817920 N
atom 8.3146042773470601 16.2801321753115822 7.4189926519313989 N
atom 8.1894540221282917 16.3542670363351199 1.8127882678067844 N
atom 9.9837781961758498 13.3759572083493268 12.7433106873788553 N
atom 9.9796234907858956 13.4156615596229756 7.3254969680904019 N
atom 9.9917310709724028 13.3791140831927500 1.9885686122925772 N
atom 11.6582601352903090 10.4258957480906904 12.8842160011758242 N
atom 11.5094882624431154 10.4885530446243305 7.5081175033124712 N
atom 11.7423897091639606 10.6196501691885157 1.9734129439910206 N
atom 13.3454726557327241 7.5937759934038214 12.7981509854767683 N
atom 13.1725803064772027 7.7739905197665236 7.4318184849927560 N
atom 15.0423121849692798 16.2444858025809253 12.8376636904042307 N
atom 14.9173273971501192 16.2708281470347913 7.5228340521318646 N
atom 15.1268758002324510 16.2210331799435572 2.0726587107589274 N
atom 11.5219675732001079 16.2478187474744686 12.7418275920114752 N
atom 11.5617267288010090 16.3075423353014983 7.3444910843375650 N
atom 11.5966219073758214 16.1584704586428174 2.0893122396655963 N
atom 13.3019102876530955 13.4974036207408048 12.7485084886539095 N
atom 13.1002729976852859 13.3783410732708781 7.3761598143844846 N
atom 13.3617860464706162 13.4330160426791227 2.0806670029959782 N
atom 14.9165478708848180 10.6113700875459411 12.8285843364936927 N
atom 14.8502062029626938 10.4741518520016310 7.3483856130068679 N
atom 8.2666441103181807 10.5898345972861154 7.4729052141661692 N
atom 8.4625642152839244 10.5430028380851688 1.9226533827028236 N
atom 9.9070921283476796 7.7777986553208454 12.9309018821223880 N
atom 9.9039340463470946 7.6197342415277971 7.5569474744423299 N
atom 10.1043105619770586 7.7718193883972075 2.1184579936498062 N
atom 11.4944662845431420 4.7187078016065263 12.8163783123842858 N
atom 11.6505215796405164 4.8615894928335690 7.3678303603436133 N
atom 11.7305629113998133 4.7266012505373407 2.0339622748210315 N
atom 13.3084348453165227 1.8826677683492641 12.9118101221993999 N
atom 13.0723729503140529 1.9352657895879530 7.3029814789530372 N
atom 13.3333762794923345 1.8281698718647172 2.1067031076907332 N
atom 13.2214533968386849 7.6320548557347685 2.1368140351506706 N
atom 14.8799449434496154 4.9474385626649209 12.8154530887491980 N
atom 14.9124418781945192 4.9994338564522947 7.4346860608045890 N
atom 14.8932716686180449 4.8061694861506421 2.0873671485227496 N
atom 4.8956691844508109 16.3447404665701015 12.7483861888888104 N
atom 4.9639797109257779 16.2819446191599830 7.3976546789867159 N
atom 4.9465871533039287 16.2837754213591381 1.9897786766799439 N
atom 6.6500102587458763 13.2777266362250099 12.6224037889706313 N
atom 6.6987877279931372 13.4346885866261783 7.4471063120097156 N
atom 6.7646990750518832 13.4258723079798603 1.9849445351540456 N
atom 8.3036926572349525 10.5593546047370008 12.7885733847989922 N
