#===============================================================================
# Created using the Atomic Simulation Environment (ASE)

# Thu May 11 08:59:15 2023

#=======================================================
lattice_vector 15.6273739999999997 0.0000000000000000 0.0000000000000000 
lattice_vector 0.0000000000000000 16.2404434541285205 0.0000000000000000 
lattice_vector 0.0000000000000000 0.0000000000000000 15.2445761999999903 
atom 15.5930120097245997 14.3245210809557815 2.5913204844292124 Ga
atom 1.4907092568715612 11.8339938763132615 12.7513162214588593 Ga
atom 1.6013347842699024 11.5739485627677556 7.5512216435529274 Ga
atom 1.5034190096808036 11.8384063901570400 2.6415129369318553 Ga
atom 3.1302787890958186 8.9651834857174357 12.6685405347966462 Ga
atom 3.1242498900609807 8.9941528072461647 7.6207340708806530 Ga
atom 3.0841547750250196 9.1409730369278908 2.4684003053402703 Ga
atom 4.7326697807316398 6.3236635247944450 12.5773281454222570 Ga
atom 4.7713630898450150 6.1742321531695676 7.4221017226098622 Ga
atom 4.5956931908635124 6.1018861358712373 2.4822055872697333 Ga
atom 6.1944040632768376 3.6203626282216828 12.5564508211152290 Ga
atom 6.1469325006486590 3.6267121944248153 7.5819104174374425 Ga
atom 7.8264872070640052 6.3523201268791771 12.6112520188700294 Ga
atom 7.9634864838551325 6.3168559635752315 7.6343563098729543 Ga
atom 7.6699947832106030 6.2769524433319424 2.5869961439097828 Ga
atom 9.3141045998297471 3.6518750924161787 12.6113264014373758 Ga
atom 9.3707918083967243 3.5462997757395405 7.6387425622997256 Ga
atom 9.3606869930425400 3.6647107398970511 2.4918365544274925 Ga
atom 11.0014655241524721 1.1195776521887786 12.7359774567012121 Ga
atom 11.0648286510465965 1.0123182647918942 7.7601499573573154 Ga
atom 10.8624743438685964 0.8379382679167341 2.5239227454053363 Ga
atom 15.5178558963958277 14.4231720690997278 12.6847248058701947 Ga
atom 15.6179911650417793 14.3288960270686090 7.7510599906873159 Ga
atom 3.1255454494883512 3.6107128494008274 7.5227131857982563 Ga
atom 3.0711203337239010 3.6421456770038989 2.4211400179807603 Ga
atom 4.6546967522812883 0.9050736319873001 12.6215249479077460 Ga
atom 4.8451358212491069 0.9182696025118771 7.5798116527501707 Ga
atom 4.6768897929100897 0.9445400601151820 2.6809196362451799 Ga
atom 15.5617882190419472 3.5882956276852487 12.6528652054951838 Ga
atom 0.0593092673708026 3.7922370586845235 7.4444340048182767 Ga
atom 15.5165813111612714 3.7034080096536628 2.5121124895064328 Ga
atom 1.6189581582185495 0.7924159063753039 12.6773143705638898 Ga
atom 1.7527020180805690 0.9332507183946327 7.4186296528969189 Ga
atom 1.4798316576090187 0.9829263652263870 2.5613509898058568 Ga
atom 6.2865728454722962 3.6074108345349716 2.3705511721264960 Ga
atom 7.7568808420852680 0.9652227429385649 12.7063323575385621 Ga
atom 7.7894279565724327 1.0053966775913279 7.4710110225787512 Ga
atom 7.7250473239822997 0.9375320766152193 2.4739390114415549 Ga
atom 0.0235519396035798 8.9724671782823275 12.7306053953474017 Ga
atom 15.4970150181304582 8.9953725043552222 7.5161085461231973 Ga
atom 15.4631237604347920 9.0856580345550082 2.6170241141976041 Ga
atom 1.4648824251813906 6.2681803325593313 12.7311911422568649 Ga
atom 1.4419900580847707 6.3008763877299456 7.6377083306523783 Ga
atom 1.4460318802818097 6.3994097559530481 2.4880176874192421 Ga
atom 3.0617213043452249 3.5438494501536444 12.6163797219636269 Ga
atom 11.0355641260078006 11.6666194126291636 2.6127691865656644 Ga
atom 12.6164352662908126 8.9943312910079189 12.6654108729597059 Ga
atom 12.5858551324887369 8.9080873186955980 7.5870572184578808 Ga
atom 12.5421152069124062 8.9483495095907166 2.4595297138918597 Ga
atom 14.0126614259280302 6.2983541431010011 12.6437262625329989 Ga
atom 14.0567475297062714 6.3679957753584571 7.7100671178579017 Ga
atom 13.9456651398236797 6.2908120100660891 2.5378424990642019 Ga
atom 6.3314004241354649 14.5060309198109803 12.7441553613041574 Ga
atom 6.4316424185166206 14.4172641669924122 7.6828064959750364 Ga
atom 6.3581740128865141 14.5083760645695570 2.5197405068235179 Ga
atom 7.9801601528461701 11.8165954404120122 12.7178803719836733 Ga
atom 7.7940190081370089 11.7738660429072883 7.6348699766125581 Ga
atom 12.4633880325033193 14.4897731431462518 12.7787289432407238 Ga
atom 12.5535606853789155 14.3200513105496725 7.5835596443018698 Ga
atom 12.3884824436260423 14.6508896099208474 2.5789471573995684 Ga
atom 14.1282918089428158 11.6803003666858931 12.8754666689155872 Ga
atom 14.0429977915976405 11.7948859591114719 7.5879326832675149 Ga
atom 13.9386209338096574 11.6900666320598230 2.6848767121971848 Ga
atom 9.4194371500291272 14.7416008392190374 12.7519292089585452 Ga
atom 9.3264975213049350 14.4334132447945898 7.4566052441027280 Ga
atom 9.3061026177646688 14.2764945473631464 2.5882838876873087 Ga
atom 10.9111718927971211 11.9306240497419491 12.8041751931630277 Ga
atom 11.0447847909356121 11.6285369066159685 7.7475668938979396 Ga
atom 14.2881462973091278 0.9294112918620253 7.4663298657391950 Ga
atom 14.0890338826291384 0.9525819980774879 2.5081728090471858 Ga
atom 3.0528705471747748 14.3138850718384170 12.7417442542207464 Ga
atom 3.0176420602801559 14.4232205960422135 7.7026340377493998 Ga
atom 3.0652957938663623 14.3739406327181864 2.7078364640407759 Ga
atom 4.7068053164597501 11.7865780917928031 12.8308576848343474 Ga
atom 4.6961447674596339 11.7387053598244666 7.6218098752964796 Ga
atom 4.8028342996846147 11.7013628782662149 2.5855243266469570 Ga
atom 6.2991486385000668 9.0690031596807739 12.6654002572133884 Ga
atom 6.3965553230763472 9.0811632106534095 7.5914590721801245 Ga
atom 6.3110523212515410 8.9726836512200592 2.5833861133131339 Ga
atom 7.8133621662154260 11.6068809416648175 2.4191494170765697 Ga
atom 9.3734611633715428 9.0986719038612058 12.7006282760591649 Ga
atom 9.4942308085613334 9.0007701551808967 7.6013904845271085 Ga
atom 9.4373939621297751 8.9938155665644732 2.4396452431741347 Ga
atom 10.9640217355436551 6.3470512076209582 12.8532493215187813 Ga
atom 10.9603700622479305 6.3439220017211753 7.6350623990866735 Ga
atom 10.8538882960937375 6.3026153347629466 2.7376227978115444 Ga
atom 12.4404977359152991 3.7854680884447265 12.6989556854828685 Ga
atom 12.5047706334853412 3.5702403619154857 7.7648959103054684 Ga
atom 12.5566167639845503 3.6710164755740085 2.7261585232395675 Ga
atom 14.2356101124181489 0.8721217300994457 12.5982733344757918 Ga
atom 6.2727333557218854 7.2068387817121291 5.1679178573385567 Ga
atom 7.7755188497712941 4.5576408550395531 15.1290615072838381 Ga
atom 7.7278929496266278 4.4993821908223754 10.1014345878501999 Ga
atom 7.8130379207599159 4.6227969806986016 5.1043631055263141 Ga
atom 9.2930860038741070 1.8151115571311529 0.0885331357097341 Ga
atom 9.4506157485443190 1.8451260410022357 10.2608547938091998 Ga
atom 9.5028769681068557 1.7810369991858523 5.0907672022235744 Ga
atom 15.5573406813564841 12.5760095107592527 0.1181741365516167 Ga
atom 15.5316256866879900 12.6944822187318103 10.2045719636983261 Ga
atom 0.0458059760499963 12.6783203370845161 5.1131867470028887 Ga
atom 1.4219302931549829 9.8483601305159691 0.0174648267480171 Ga
atom 1.5017200692727757 9.8721300317970382 10.1577723840685969 Ga
atom 1.5380868592615899 15.3500318993967948 0.0282521984317335 Ga
atom 1.5585742868118235 15.4146895975299927 10.0847554294309081 Ga
atom 1.5556077329309954 15.2877875257159506 5.0928542541445525 Ga
atom 3.0728832223389873 12.6879198399304620 0.2576391973394307 Ga
atom 3.0950414725122002 12.4488338324174617 10.1607564053968993 Ga
atom 3.1680949667951945 12.6991521990053595 5.1264184975646074 Ga
atom 4.5088746483496740 9.8670622643498707 15.1470807047236438 Ga
atom 4.6873242785160683 9.9113711471736625 10.1004772049476426 Ga
atom 4.6508356109523188 9.9485743886843441 4.9589047305355551 Ga
atom 6.4267130544512865 7.2275952250991713 0.0249921722495747 Ga
atom 6.0612747836798437 7.2529778129840272 10.2181337660628184 Ga
atom 15.6044991436111378 7.1991898310943201 10.0643714145257981 Ga
atom 0.1011798693013167 7.2213312634955784 5.0365646632306067 Ga
atom 1.6262725923348054 4.3238561869075740 15.1588872753082953 Ga
atom 1.4966378913346032 4.4095260719690277 10.1721504063889263 Ga
atom 1.5947719338501698 4.5310738217233775 5.0265417262516392 Ga
atom 3.1246346818787973 1.7640574229695358 15.2294432372925481 Ga
atom 3.2348281403474739 1.8297061817001421 9.9786026498101581 Ga
atom 3.2936303172212416 1.9604481310567363 5.0699846343012718 Ga
atom 15.4580800701835521 1.7817897325238139 15.2322950468903251 Ga
atom 0.0206271548195797 1.7166453762027283 10.1151234856770191 Ga
atom 15.6123258244097514 1.8059595819372638 5.1256235697333494 Ga
atom 1.6500094490499959 10.0606065852816773 5.0784650540716667 Ga
atom 3.0923812789475558 7.1224247264941933 15.2282163959192136 Ga
atom 3.1620227603493696 7.0942024945165985 10.2208862570275851 Ga
atom 3.0473590100093566 7.3179910786082907 5.0934456116603677 Ga
atom 4.7467861662082749 4.3499653476105946 15.0446132519202305 Ga
atom 4.6033544064964547 4.4782346817888934 10.1477758025050644 Ga
atom 4.7616381477091059 4.5829275810248120 5.0456408825985086 Ga
atom 6.2623699638247103 1.7042136837044053 15.2394858143345129 Ga
atom 6.1862854553118094 1.7966088591354163 10.0423007404058371 Ga
atom 6.3762763822645052 1.8675148629528429 5.0345940993927814 Ga
atom 15.6106239929034665 7.1066903235721215 0.0640608863880047 Ga
atom 14.1226848139565906 9.8234216574968958 5.0636870278377044 Ga
atom 7.7714183268062245 15.1919656233175342 15.1939381189353906 Ga
atom 7.8786675271174866 15.5041938875651315 10.1091468773955029 Ga
atom 7.8483504070212167 15.3398586906168273 5.0210440962366691 Ga
atom 9.2614424961189794 12.4627973610388025 0.1434797969334873 Ga
atom 9.4230897476568316 12.7656683326462037 10.3023750741088360 Ga
atom 9.3566846638520307 12.6473279435361441 5.1559318816724931 Ga
atom 10.8852298353567321 9.8062426865131993 15.0917433557711700 Ga
atom 10.9551453985432357 9.8471483831627751 10.2183017128855251 Ga
atom 10.9694576555712278 10.0714048224311856 5.1440408327459393 Ga
atom 12.5524168918314309 7.2852862019360618 0.1022635365353347 Ga
atom 12.4208674853217893 7.2653607004183725 10.2171369835425523 Ga
atom 14.0521719008577328 15.1794305555459292 0.0118537660880717 Ga
atom 13.9982619254980456 15.3624577671447664 10.2026340368520376 Ga
atom 14.2314455625320324 15.3224303765628989 5.0786007979560166 Ga
atom 10.9777077513701737 15.2885113269236310 15.1588226925713254 Ga
atom 10.9548815470781324 15.4161982838780514 10.0839082584318298 Ga
atom 10.9637596229236429 15.2990536053853479 5.2028937034519176 Ga
atom 12.4541567516307783 12.4432718476386039 0.0864400307966917 Ga
atom 12.5067468579689027 12.7278890598535543 10.2134345875014532 Ga
atom 12.5011973564482393 12.6824941309495873 5.1638956135051224 Ga
atom 14.0490753215177939 9.8607323181342288 15.0792172163459455 Ga
atom 14.1279745690221610 9.9180645505811835 10.2496907430866351 Ga
atom 7.7781323829737197 10.0363309749358418 10.2006965952825315 Ga
atom 8.0570448211560262 9.8193361504396695 5.1182989446395490 Ga
atom 9.3806230276868803 7.2123400870698955 15.2221501890754425 Ga
atom 9.3554322540215171 7.1718970774876043 10.2942550678637428 Ga
atom 9.3325931705809353 7.2536381467287026 5.0333846847562667 Ga
atom 10.8557930617895977 4.4190274797628071 0.0263526295920244 Ga
atom 10.9544296371023258 4.6229914838424646 10.3142767725525566 Ga
atom 10.9152330545614653 4.4602816162651457 5.1738178030928141 Ga
atom 12.3960998664425404 1.7863941111063892 15.1928441843278712 Ga
atom 12.5547390754814394 1.9418078068883335 10.0982727286716436 Ga
atom 12.4880866758125695 1.7621142350727965 5.0377309177159848 Ga
atom 12.4971535240797369 7.3119941779288995 5.2314592541793035 Ga
atom 13.9728180559010138 4.4771788602874292 0.0675408496774103 Ga
atom 14.0203092667343192 4.4914813696487386 9.9917106008875365 Ga
atom 14.1570402146304772 4.5479091705659451 5.1210478960309587 Ga
atom 4.5795240592608772 15.3535735203378181 15.1592409318602659 Ga
atom 4.7322513840522484 15.2375122519944561 10.1177157642029893 Ga
atom 7.8558056093316670 9.8473684132927453 15.2424670512426488 Ga
atom 6.3584572946298898 12.6281635479460252 5.0066805333473221 Ga
atom 6.2867442612181872 12.7065869031565288 10.1271508369839474 Ga
atom 6.2030173702199063 12.5060611247229065 0.1195108523385164 Ga
atom 4.8620901874954354 15.3069709829029375 5.1663736915455374 Ga
atom 2.9944528053708792 8.9839410327827327 9.6023907984513546 N
atom 2.9064300339417679 8.8954373777092393 14.5878814937806212 N
atom 1.5077934334305656 11.7472247969313468 4.6227924982369926 N
atom 1.3957902155373025 11.7697511506986192 9.6059988157308211 N
atom 1.5627928347725082 11.7758449441795428 14.7627420652651313 N
atom 0.1211494565724219 14.3108288191494122 4.4606941873575554 N
atom 3.2726987324168455 9.0585945399485048 4.4222296994959240 N
atom 4.7959831613545987 6.2312748428716986 14.5376123442260212 N
atom 4.6619908154643426 6.2951195437100029 9.3629098849237469 N
atom 4.6295032031524199 6.3387892702547877 4.3771890274537650 N
atom 6.3254290060445992 3.4171798296042533 14.5556928819411979 N
atom 6.1062995881363449 3.5517460670787466 9.4727671764057817 N
atom 8.0055713853483308 6.3381168457713386 14.3980518784609455 N
atom 7.7181285236762118 6.3681531966584801 9.5370502179371730 N
atom 7.7479784065842106 6.4049843820498094 4.4515901083431020 N
atom 9.2447369761418638 3.6110039272837993 14.5032851474890983 N
atom 9.5019979395059000 3.5692553074952937 9.5728121778542832 N
atom 9.3461690173375995 3.6718152462915921 4.4856676097470443 N
atom 10.8512954623200386 0.9398254487756013 14.6280048268950438 N
atom 11.0347540366694528 0.9466612877042453 9.6817908517193523 N
atom 11.0009183658433063 0.9209352424042667 4.4629943567220236 N
atom 15.4988699500654565 14.2991958541174480 14.5743875440916764 N
atom 0.0073919231454968 14.5758141103058154 9.7415601385409172 N
atom 3.1972582092120700 3.6206387307084316 9.3930772867832903 N
atom 3.0672447817759294 3.7441400491519090 4.3446713659785763 N
atom 4.6855103273139145 1.0003253486391086 14.5513933589535309 N
atom 4.7367765729458080 0.7980581442700106 9.4668869799348965 N
atom 4.8088635936167865 0.9027761993527559 4.4836005540048030 N
atom 15.4791800956085996 3.4870133822186671 14.6802732555492739 N
atom 15.5935622522802717 3.6707279096338814 9.3692499449715516 N
atom 15.5824010561056934 3.6636329662333185 4.3883110595668047 N
atom 1.4489809836874665 0.9071319435522560 14.6970863997540206 N
atom 1.6662498651938611 0.8101645705842792 9.4773679419325472 N
atom 1.5662161792791709 1.0682855043256898 4.6174182576246725 N
atom 6.1976451119791625 3.5763884200070164 4.3390117532851349 N
atom 7.7282936089275767 0.8109234856159400 14.5891461069847832 N
atom 7.9628816628703234 0.9981801959228631 9.4645593177499983 N
atom 7.8905603651493212 0.8690531796081232 4.4170405758348394 N
atom 15.6045826370508092 8.9644011979418714 14.7281962784753144 N
atom 15.6233960386386208 8.9935626790928147 9.3738547786241515 N
atom 0.1044663056162628 8.9828949619122955 4.4845474224588147 N
atom 1.4475297325197591 6.2465753693460933 14.5538375446859547 N
atom 1.6262918134297379 6.1879199193477001 9.5714908206620368 N
atom 1.6765891528481975 6.3155915876569768 4.3773868994711709 N
atom 3.1483821021359142 3.5345686721729206 14.5733501757616430 N
atom 10.9929754570259686 11.7465596571993363 4.4505409872788499 N
atom 12.4299695698396100 8.8857427346618802 14.5129142083206837 N
atom 12.4403205802672865 9.1140095082385351 9.4930256490354985 N
atom 12.5529995362623357 9.1580918525632722 4.3958405461821997 N
atom 13.9560370070064863 6.2213973979342772 14.6069687948372149 N
atom 14.0051191489301221 6.3225868083740000 9.5315983781990337 N
atom 13.9828017203186157 6.3815984304199764 4.4559107908685434 N
atom 6.2489193311998461 14.3415902900596777 14.5982233104666079 N
atom 6.3550863862427001 14.3202183193966270 9.5798715071718004 N
atom 6.4091513741136028 14.4257987128855838 4.5035572316165826 N
atom 7.8229213899917314 11.7012601590245104 14.6899085424407865 N
atom 7.8140554612609012 11.6587432923287651 9.5556755066984014 N
atom 12.4674531982226355 14.1590616836638006 14.6228816434239128 N
atom 12.3715134585289217 14.5203512948511637 9.5142410497934051 N
atom 12.5634434645999740 14.4956169959505292 4.5690465478955637 N
atom 14.0133461874773122 11.6403516992439116 14.6585449576555931 N
atom 14.0706645819461453 11.7600448168910585 9.4649252472264038 N
atom 14.0802559513536014 11.6617148076577486 4.5653575015868588 N
atom 9.4846447593405205 14.2752688169454238 14.5430979872929154 N
atom 9.4401482409523432 14.4662711798058137 9.3743826067077798 N
atom 9.4322377732377571 14.3446789500116516 4.3407175409967786 N
atom 10.8788541806914836 11.6302161284440668 14.6786118417587215 N
atom 10.9817229185554730 11.8892874421071220 9.6902740618084966 N
atom 14.2758836418811583 0.8491526768328943 9.5118114964570779 N
atom 14.1707810599217687 0.8870522734306487 4.4613179661979041 N
atom 2.9869680657684889 14.4521882609146513 14.6997946389665124 N
atom 3.0843326340489470 14.3248282762191099 9.4825637975333859 N
atom 3.3008881318000078 14.4747993738858280 4.5137218210381427 N
atom 4.6917935142035194 11.7593163848540989 14.6850353453220528 N
atom 4.6236598072574369 11.7176694573498388 9.5281267038343547 N
atom 4.7015410006577953 11.8542245233794663 4.5208119690203370 N
atom 6.2071873561733932 9.0730027072344264 14.5205082471899942 N
atom 6.2798060791125971 9.1161356865642169 9.5051228262657030 N
atom 6.4495240256970439 9.1550851914180971 4.4449098416549946 N
atom 7.9127663066080816 11.7065024662021102 4.4338873736685862 N
atom 9.2712432858444593 8.9468176876331018 14.5569782415615236 N
atom 9.2667568325428373 9.0021707361224195 9.6410935757215892 N
atom 9.4270408663614020 9.0670522739960546 4.3385903483340265 N
atom 11.0419758137799118 6.3205855189792253 14.7542402701707474 N
atom 10.9010424647956761 6.4096524850624057 9.6397947361609830 N
atom 10.9089719937330933 6.3419722364943709 4.4945857040938622 N
atom 12.3752429422314592 3.6279964725324647 14.6542849436044893 N
atom 12.5164663475425915 3.6226279517221638 9.5159319551835786 N
atom 12.5420379028732967 3.6869867672641501 4.5374612083967243 N
atom 13.9361982071729020 0.8257294344457298 14.6952407821218003 N
atom 6.0947045450115294 7.2546143186243013 1.9760334470218974 N
atom 7.8013474846191375 4.4082118809044575 11.9773843568962306 N
atom 7.6854761828164566 4.5877786150453304 6.9343128101188434 N
atom 7.7954482847516529 4.5434951835687567 1.8198416054319873 N
atom 9.4080732145559871 1.9377361900636330 12.1493598227484316 N
atom 9.5365559989165760 1.7611771656430470 7.1453840246732181 N
atom 9.3627770340180163 1.7652026409893191 1.8684548373619678 N
atom 15.5145368909313319 12.6874395831533953 11.9948369259148429 N
atom 0.1372460733391166 12.5554764526624929 7.0811009561726470 N
atom 15.5176179366008782 12.7206375893167074 1.9434584015917737 N
atom 1.5472659810056426 9.9169293479899334 11.9945388321615578 N
atom 1.4152435977980102 9.8463655456009427 6.9646346103271446 N
atom 1.5036012481081438 15.2411633947561889 12.0837547679549449 N
atom 1.4946918343234021 15.3485385959094014 6.9923662637514044 N
atom 1.4367257296904341 15.2142779969823838 2.0638551288609941 N
atom 3.1909386305753391 12.5408648780112042 12.2094649352797848 N
atom 3.0812012026909437 12.7417956618967754 6.9550698257785886 N
atom 3.1303443340615393 12.5595960924693930 2.0999634468247295 N
atom 4.5798687752272178 9.9983131693459892 12.1286575828059391 N
atom 4.6386487334480284 9.8296837134783601 7.0659455591697187 N
atom 4.7674413655214565 9.8376736030303711 1.7940237128595860 N
atom 6.2596729827060926 7.1749927021664224 12.1349689507444882 N
atom 6.2301270530162638 7.2900503498499569 7.0307375864945234 N
atom 15.5349135975066179 7.2474833203774693 7.0446753635533188 N
atom 15.4118064621279629 7.2613611944733849 1.9225104583846555 N
atom 1.5803826033954471 4.4551626542183014 12.0686143105476642 N
atom 1.6592012052501044 4.5589054740079007 6.9205796611537975 N
atom 1.4806115569256439 4.4482711927571090 1.8365282464903718 N
atom 3.1613879104452804 1.7417692611338333 11.9455377438526877 N
atom 3.2365047431066554 1.8387529814658479 6.9792721003731852 N
atom 3.1737559598631755 1.8625412630573464 1.9473278123534070 N
atom 0.1026144479359383 1.9019417511619663 11.9933481454870545 N
atom 0.2408271129521930 1.8672374000200611 6.9670566617553877 N
atom 15.5519496559194472 1.7814985234541125 1.8950824439596783 N
atom 1.3610644345506748 10.0029284344316363 2.0089062824155084 N
atom 3.1966851942483818 7.1241403816326043 12.1573872491479857 N
atom 2.9854879551522830 7.2216273705508280 6.9943216535021202 N
atom 3.1585208460466276 7.2530820673205190 1.8212029767811442 N
atom 4.5967910620516728 4.6509889742676078 12.0003041730436966 N
atom 4.5142369656511985 4.4708914910510771 6.9688103802637711 N
atom 4.7575081405517263 4.4318317904039297 1.7051056998661971 N
atom 6.2648689264927047 1.7752860792067606 12.0577802243552643 N
atom 6.2813495365073102 1.8797437520162481 7.0629716369068190 N
atom 6.1756754911085210 1.7796088370422085 1.8398690004825120 N
atom 15.5925816633250456 7.2177326452335526 12.0925535144326126 N
atom 13.9866036271701972 9.9499727140994843 1.8260855498788986 N
atom 7.8197686817671226 15.5775606786736578 11.8414469769349839 N
atom 7.8739000193353696 15.4369919186192188 6.9035674658482789 N
atom 7.6620571679152309 15.2948051192982444 1.9514568244396464 N
atom 9.4719010162906905 12.7699741266696840 12.1728783795922926 N
atom 9.5383023181356528 12.4948809384557169 7.0783204723510202 N
atom 9.2707227725419212 12.5309338060532429 1.9355512636915104 N
atom 10.9319273131731443 10.0984586661244471 12.1812184826367513 N
atom 11.0181176052887242 9.9593628416667954 6.9031192829408052 N
atom 10.9371663642609693 9.9179828464294584 1.7450778523606629 N
atom 12.5017339258436575 7.1695362418477258 11.9921101732071342 N
atom 12.4229157160820023 7.1625161489410862 6.9146900795766584 N
atom 14.0596658189408590 15.3919645735823742 12.0807348804480288 N
atom 14.1329803963307494 15.2407752521272872 7.0133582888039010 N
atom 13.9868291321135612 15.4064342569827435 1.9134281995944951 N
atom 10.9394217779266612 15.4016069158671449 12.0592052916793318 N
atom 11.0121796658172890 15.2665796165986265 7.0102396087645165 N
atom 10.7935263221630517 15.3871612800764588 1.8163115716218523 N
atom 12.6015057613489514 12.7424559227023728 12.1730853676732718 N
atom 12.4553453742049332 12.6046598399575966 7.0328025765793107 N
atom 12.4783557107899874 12.7350831317175341 2.0217221911643701 N
atom 14.2112292745832818 10.0064744920765065 12.1598540840535314 N
atom 14.0012816620717615 9.8984563416073552 6.9067647100209193 N
atom 7.9782439723348464 9.8794577259811778 7.0416023665639216 N
atom 7.8217378799054789 9.9703016642488436 1.8504934840805163 N
atom 9.3948175915851415 7.2443266672941409 12.2198778350319550 N
atom 9.5387354507237756 7.2574630940007285 7.0867257539671682 N
atom 9.3358671927936125 7.2502762757690631 1.9180549475807285 N
atom 10.8018739328095119 4.6695527235793852 12.2505285601170009 N
atom 10.8927471295806839 4.5032825729829806 7.1650514159470378 N
atom 10.8542476114455688 4.5158978490505453 2.0492696364784773 N
atom 12.5770410904195344 1.9656033405608586 12.0462501901106105 N
atom 12.5681885869484855 1.6903625231740147 7.0127090518405186 N
atom 12.4189982523583389 1.9581797173417270 2.0164019871925816 N
atom 12.4126424598968246 7.2255114505261977 2.0109193980396247 N
atom 14.0611050783482678 4.5056972955111210 11.9514259904468929 N
atom 14.0247928879414925 4.5003600608226391 7.0603501675541240 N
atom 14.0088842909503999 4.6194182738180478 1.8890868043612761 N
atom 4.6187951120123820 15.3105076478574542 11.9762013499576430 N
atom 4.6814082325916377 15.2767724770479454 7.1431680556962922 N
atom 4.6034367795857722 15.3192462952677850 1.9349577484243841 N
atom 6.2463616835624718 12.7198490305943519 12.2012368650174530 N
atom 6.2915209135929242 12.6034729000997245 6.9001203376466629 N
atom 6.3529515802871588 12.6373757903905695 1.9993523949540566 N
atom 7.8727768391743247 10.0065170607996414 12.1688795548676882 N
