#===============================================================================
# Created using the Atomic Simulation Environment (ASE)

# Thu May 11 08:59:44 2023

#=======================================================
lattice_vector 16.0100851999999989 0.0000000000000000 0.0000000000000000 
lattice_vector 0.0000000000000000 16.6381685999439100 0.0000000000000000 
lattice_vector 0.0000000000000000 0.0000000000000000 15.6179127599999905 
atom 0.0143298422100735 14.7430802577076214 2.6481579559788537 Ga
atom 1.6852723416751807 12.0186590644839928 12.9824206002720448 Ga
atom 1.6120163326642829 12.0017887154444924 7.8123736665474537 Ga
atom 1.6363671108923457 11.9988811805861637 2.5882872384128870 Ga
atom 3.2925698768682898 9.2443990887245988 12.9788069465816864 Ga
atom 3.2300238578223555 9.2067704140553328 7.8027431542951309 Ga
atom 3.2071321915426374 9.2519580696637718 2.6160366533469208 Ga
atom 4.7840626655514313 6.4471507377555479 13.0781586766492026 Ga
atom 4.9125441089379978 6.3965102155065869 7.8388373470048336 Ga
atom 4.8186167915562264 6.4250113250918819 2.6455178178184515 Ga
atom 6.4164869844506960 3.7553627973109815 13.0143949794407874 Ga
atom 6.4364978632314767 3.5901456726277798 7.8336542270300606 Ga
atom 8.0522403599885521 6.5079562360388143 13.0342791760580674 Ga
atom 8.0155427340505394 6.3437227651031334 7.8126014396375796 Ga
atom 8.0077699608201449 6.4609212641734812 2.6824470527436146 Ga
atom 9.6642331558160848 3.6567999145830217 13.0448777847969488 Ga
atom 9.6261494808866033 3.7137980515142206 7.8503000634834610 Ga
atom 9.5460214350035120 3.7224398516560622 2.6316527344941805 Ga
atom 11.2084702532559017 0.9090708694538180 13.1099775127468661 Ga
atom 11.2259527089827564 0.9908707396669119 7.8114671984372581 Ga
atom 11.1034697575524355 0.8911601962065132 2.5759254391017676 Ga
atom 15.9586610117894185 14.7934077302918610 12.9619437280350223 Ga
atom 15.9709033741273547 14.7948491787519441 7.8363367795123642 Ga
atom 3.1933556105632714 3.5792895930399267 7.7212447616946402 Ga
atom 3.2092019635106306 3.7193918085433926 2.6571071971238585 Ga
atom 4.7922481117125146 0.8907011347977309 13.0117236433565715 Ga
atom 4.7612739348807684 0.8224527726380102 7.7667507196847989 Ga
atom 4.7656001419729330 0.9226701940893414 2.7079300427107071 Ga
atom 15.9777927694579684 3.6745486601589339 13.0523100101242093 Ga
atom 15.8730972265939343 3.7073124469989285 7.7238623220988645 Ga
atom 15.9410062348868813 3.6768786718364748 2.6458144606011005 Ga
atom 1.4885720226769450 0.8717702970403366 13.0464848490936980 Ga
atom 1.5855023838839286 0.8752770206523812 7.7884303745875156 Ga
atom 1.6174853262721638 0.9712828470990177 2.6475063501681833 Ga
atom 6.4070046735651669 3.7032751402199779 2.5094968559747786 Ga
atom 7.9838932151643638 0.9369709144758047 12.9942759979115188 Ga
atom 7.9805364188203951 0.9272809881870872 7.7236576319619115 Ga
atom 7.9840974959108335 0.8815285817177700 2.5801852614665153 Ga
atom 0.0363375303757587 9.2326795142407825 13.0407445088677321 Ga
atom 15.9913415775041585 9.2716197597232171 7.8360969157152747 Ga
atom 15.9749146686541756 9.2819083197710874 2.6201459589848453 Ga
atom 1.5444557687481044 6.3857440690827341 13.0613099761055196 Ga
atom 1.6752577217962239 6.4430459809881286 7.7071664003681528 Ga
atom 1.5760065306886804 6.5063189933524042 2.6710769297539363 Ga
atom 3.2139915563539474 3.6556528976585270 12.9891308759325721 Ga
atom 11.2508841545911871 12.1190710349185196 2.6169402403025206 Ga
atom 12.8371012302026024 9.2567377113028009 12.9809585936425069 Ga
atom 12.7785528767054153 9.3122268415331977 7.7779449635697944 Ga
atom 12.7543137927282011 9.2559887410016568 2.5703083445171693 Ga
atom 14.4665117822984328 6.4957038265597200 13.0260128064166363 Ga
atom 14.3324583189873902 6.5554691265070870 7.8821267311803558 Ga
atom 14.4382153559155526 6.4177872029805840 2.5786009757259163 Ga
atom 6.3877104354499634 14.7750561523452308 13.0311765562415296 Ga
atom 6.3670766816948321 14.7813423493454152 7.7872636236995820 Ga
atom 6.3381608370024125 14.8201105528881403 2.4859437938636915 Ga
atom 8.1035058595482390 11.9986908006621533 12.9273963058535131 Ga
atom 7.9962798021495951 12.0246984145058224 7.8072580890899594 Ga
atom 12.7652501751932466 14.8445806244744034 13.0649163825299208 Ga
atom 12.8274992113258275 14.8005649967536979 7.6889071141031797 Ga
atom 12.8404779343512150 14.8561717241824489 2.5679675501159305 Ga
atom 14.4881763167556077 12.0246890595539373 12.9383995279269861 Ga
atom 14.4775205993008154 12.0379157385548066 7.7879900886968372 Ga
atom 14.4807948995490676 12.0154126651171058 2.4714862539882372 Ga
atom 9.6153145996055915 14.8808335845218309 12.8886143479818092 Ga
atom 9.5565572299778605 14.8245512730972706 7.7449727245387585 Ga
atom 9.5517977907105660 14.8047052367105589 2.5721312495711532 Ga
atom 11.2094381887174954 12.0732065655175163 12.9644795927965344 Ga
atom 11.1571395616540876 12.0168276480646554 7.7472071593477994 Ga
atom 14.3905350328989048 0.8951506010570164 7.8230465519685026 Ga
atom 14.4179178526967497 0.8868497276723237 2.5667553510879655 Ga
atom 3.1598115365414809 14.7870312271174047 12.9660904301187827 Ga
atom 3.1582582799502354 14.7840706267892887 7.9275626746025241 Ga
atom 3.2019565424371343 14.8159624165013852 2.6142285848430840 Ga
atom 4.7531357617233905 12.0603894826485174 12.9718491759830901 Ga
atom 4.8230697901828812 11.9995364464602794 7.7854041858356684 Ga
atom 4.8611579856980853 12.1053151379329424 2.6482112983868640 Ga
atom 6.4141926940047194 9.1583890390750415 13.0114137346854033 Ga
atom 6.4181339939324662 9.1677299470414439 7.7849115692767690 Ga
atom 6.4551386218107814 9.2784304811411449 2.6070032828815486 Ga
atom 8.0123097145621891 12.0528669969937567 2.5623373137949104 Ga
atom 9.6427221759148942 9.3257407125258069 13.0360545356907753 Ga
atom 9.6371160970908054 9.2503469415433344 7.8389006532309011 Ga
atom 9.6228680409525431 9.3212625697107576 2.5530285108553179 Ga
atom 11.1708357832017633 6.5248305684791630 13.0276172338943201 Ga
atom 11.1458944417478225 6.4385054514155771 7.8934782887612212 Ga
atom 11.1981797847164870 6.4948622623331262 2.5926455587165846 Ga
atom 12.7652410948158224 3.7396363392814136 13.1377370944390517 Ga
atom 12.8167381329183456 3.7318912932465693 7.8739126825120138 Ga
atom 12.7187285284722904 3.6333988135485717 2.6188486539526901 Ga
atom 14.3562634137109644 0.9756762345975508 12.9469999955633561 Ga
atom 6.4253822390506681 7.3709068651347103 5.1617298185841998 Ga
atom 7.9629870173620754 4.6384113792044577 0.0297378914475412 Ga
atom 8.0047100791502253 4.6041737599392141 10.5084855177433862 Ga
atom 8.0716049716007081 4.6026965293352404 5.2382031534404874 Ga
atom 9.5658784994558683 1.8629431917665544 0.0231486568049068 Ga
atom 9.6365964432676225 1.7869849333505019 10.4392094074218971 Ga
atom 9.6379403529796601 1.7509895601979648 5.1520201824160505 Ga
atom 0.1259881898145587 12.9232659404833914 15.6031671305413191 Ga
atom 0.0417553479590718 12.9078378369996969 10.3369666859845477 Ga
atom 0.0029935207396349 12.9859908197292064 5.2355747159543524 Ga
atom 1.7144960249150629 10.1966570649757955 15.6027912717763382 Ga
atom 1.6247886039021613 10.1835075600210700 10.3834105067194482 Ga
atom 1.5722817904590580 15.6988699876601725 15.5715920748534273 Ga
atom 1.5987953780384416 15.7516310109175439 10.4407559215608092 Ga
atom 1.5563839285154628 15.6665103072210972 5.1729703333569672 Ga
atom 3.2291857775454522 12.9373493771411869 15.5729317894988384 Ga
atom 3.1784269406845174 12.9861223151902774 10.3100318441800969 Ga
atom 3.2331697928382415 13.0424886229826242 5.2098444529803585 Ga
atom 4.8237852090035860 10.2243620046480395 15.5823269570770933 Ga
atom 4.8768037169703264 10.1826490081418122 10.3638517988320267 Ga
atom 4.8263796514161514 10.1474566022377619 5.1571171892249215 Ga
atom 6.3396166065853086 7.3996517546373290 0.0380606375970160 Ga
atom 6.4669985336278089 7.3720788317109571 10.4585725990723191 Ga
atom 0.0737959085892075 7.4021870527072258 10.4571261707214944 Ga
atom 15.9398895365232214 7.4159174198301780 5.2455802791972754 Ga
atom 1.6223090969245570 4.5265523322577916 0.0915586979417300 Ga
atom 1.6453506505003910 4.6251699895433589 10.3940760416613802 Ga
atom 1.6087013059419262 4.5915511118353756 5.2819961081153792 Ga
atom 3.2312391873775193 1.8085847309713412 15.6028937925650748 Ga
atom 3.1202712578234548 1.9139813963143835 10.4554427470886004 Ga
atom 3.0906209242061791 1.8697669508989856 5.2165934326105701 Ga
atom 16.0092104617067079 1.7482739068245907 0.0367956787583831 Ga
atom 15.9638623627421925 1.8597415722920969 10.4056773475663444 Ga
atom 15.9435840295093403 1.8669247595717611 5.1722086937626583 Ga
atom 1.6494487952597998 10.2012402197593435 5.1652196938955681 Ga
atom 3.1874730792658856 7.3410055390453808 0.0670631538258205 Ga
atom 3.2186526863474052 7.3717690773428437 10.4085112892879721 Ga
atom 3.2460173411514130 7.3165577654022496 5.2052315973642225 Ga
atom 4.7601398078411785 4.5890025861570605 15.6119474047996398 Ga
atom 4.8083051884433923 4.5290888510589715 10.3727640398301126 Ga
atom 4.8254404147474510 4.5554195685146670 5.2865678698043403 Ga
atom 6.3465191813626625 1.7652036068840773 0.0248212555875017 Ga
atom 6.4511164613668956 1.8136604845415909 10.4276843210605783 Ga
atom 6.3730625809473818 1.9030266757191019 5.1502556064032907 Ga
atom 0.0067381891291220 7.4143479718015488 0.0152898445335027 Ga
atom 14.4464386660289978 10.2517320994822789 5.1287970094776352 Ga
atom 8.0088472837718125 15.6416109121284261 15.6022104008228926 Ga
atom 7.9314237307507387 15.6827431503925876 10.3393393107702529 Ga
atom 8.0356255809209109 15.6539116139897150 5.1635166839757183 Ga
atom 9.6497140001521764 12.9846375685833095 15.5407605973746570 Ga
atom 9.6156663972681287 12.9366794338860114 10.4163225702526319 Ga
atom 9.6134051539778795 12.9277975737847548 5.1850730267172542 Ga
atom 11.1739107337792074 10.1735652425791283 0.0102605783401410 Ga
atom 11.1977754109528753 10.2178466455983585 10.4402567508433037 Ga
atom 11.2106884242186506 10.2588776907769912 5.2026592374516270 Ga
atom 12.8252522512632208 7.4215510147233834 0.0524714350366510 Ga
atom 12.7565538892312595 7.4190465825944099 10.4919001157464198 Ga
atom 14.3934211971628940 15.7283692330945275 15.6006542821542880 Ga
atom 14.4447655929442362 15.6666035376401833 10.4866925497143786 Ga
atom 14.3672355474565805 15.7325050070068855 5.3140934866976934 Ga
atom 11.1414087221851759 15.6651091945724907 15.5774981689605099 Ga
atom 11.2549690278870091 15.7519137133430700 10.4042453752595865 Ga
atom 11.1940793167112016 15.6633848324610039 5.1370981005064689 Ga
atom 12.8343079992014708 13.0312447683035444 15.6070321976489232 Ga
atom 12.7683344695602852 12.9063218272290072 10.4297665921534630 Ga
atom 12.9024630211441700 12.9876589705402896 5.2826302231423972 Ga
atom 14.4042219354196224 10.1253807477834528 15.5575530524470818 Ga
atom 14.3833204298923292 10.1346998751349719 10.4081220458355688 Ga
atom 7.9988677818197393 10.1045113205179842 10.3603221577398479 Ga
atom 8.0850174881497168 10.2072305212910486 5.1844204931251019 Ga
atom 9.5992144274581062 7.3557622356175356 0.0209296182120414 Ga
atom 9.5982088253809401 7.3822842185211730 10.3971961188507951 Ga
atom 9.6216463034571600 7.4244418040099047 5.1394029078819816 Ga
atom 11.2433348953813983 4.6807126990679588 0.0755856642592662 Ga
atom 11.1869188445311458 4.6383377574502340 10.5101337271539261 Ga
atom 11.2399970185917066 4.6337593869760605 5.1907758584761874 Ga
atom 12.7858100820592799 1.8382649427469118 15.6059634647293084 Ga
atom 12.7898106046943436 1.8242830768321221 10.4242332311108648 Ga
atom 12.8323993454215248 1.8523512049171347 5.1744881095746500 Ga
atom 12.7503608478830746 7.4302449955474881 5.2914320887296808 Ga
atom 14.4793025960721327 4.6420967918110545 15.6076303149136812 Ga
atom 14.4308108621676539 4.5906893493002032 10.3971443049780579 Ga
atom 14.3431411295259927 4.6734029390488585 5.1926667427250717 Ga
atom 4.8025697199059074 15.6860940697627864 0.0105912729669937 Ga
atom 4.7932892746669502 15.7993848608981349 10.4514688949811418 Ga
atom 8.0248227281749269 10.1526606872111866 0.0421372876427576 Ga
atom 6.3963045143049992 12.9716895237289958 5.1962065975492449 Ga
atom 6.3394317709874004 12.9527424931713355 10.4020901032559134 Ga
atom 6.4532546338827856 12.9471796273391622 15.5807199992570258 Ga
atom 4.7899188491372566 15.7301363080510743 5.2626958689812238 Ga
atom 3.2473954030368590 9.3007178279460003 9.8055328367900714 N
atom 3.2555387612492477 9.1527296168410661 14.9823223708581619 N
atom 1.6176085388744246 12.0192722832675631 4.6309143683589857 N
atom 1.6824943141959716 12.0516463682340493 9.7243107883485251 N
atom 1.6597091504360464 12.0322269723127899 14.9274730591645177 N
atom 15.9855656393353236 14.8485017225484359 4.6039249862950946 N
atom 3.2410738826969689 9.1420385231690720 4.5602360262802693 N
atom 4.8190081001779008 6.4656555299689993 15.0816274716124301 N
atom 4.8137554727462391 6.4224241266462734 9.7668412550738317 N
atom 4.7451916843938386 6.4598008619238669 4.5991391217240203 N
atom 6.4584141076519517 3.6174347925096138 14.9268377522538334 N
atom 6.4384070243266738 3.6354598583681330 9.7208583547479197 N
atom 7.9545733132451675 6.5279575276335988 15.0112280867865522 N
atom 7.9856173802250696 6.3764433240805287 9.8278375784014447 N
atom 8.0297338531427247 6.4916259210639344 4.6690999661319879 N
atom 9.6673822835365844 3.7293820271472815 14.9667654543596562 N
atom 9.6517279622543768 3.6648741656469728 9.7816752381645191 N
atom 9.6193649377035282 3.6400387220528629 4.5541924194312324 N
atom 11.1433779731904483 0.9004599090744060 14.9717831008565359 N
atom 11.1930658883440355 0.9114517143796912 9.7125842511159348 N
atom 11.1970754696524519 0.8818602489420979 4.5464588299717894 N
atom 0.0220910115687849 14.8157835991300519 14.8574595239694034 N
atom 15.9991882522491018 14.7663750609790636 9.7854448741713185 N
atom 3.1493601486507901 3.5545880595453956 9.7460235713775862 N
atom 3.1147699840894205 3.7435972239977113 4.5269468485255686 N
atom 4.7640454496742555 0.9311972934882404 14.9519204848077880 N
atom 4.7138330704126306 1.0601973970516947 9.6791066183610130 N
atom 4.7996318924527106 1.0375192906661508 4.5961210630843778 N
atom 15.9862885545297235 3.7276357233824067 14.9998035553310665 N
atom 0.0372452140504266 3.7051711685011313 9.7258598693849514 N
atom 15.9752090213096967 3.7168880486012554 4.6234582126604442 N
atom 1.6966272496094321 0.9290011049914876 14.9425724383938032 N
atom 1.5622963968510257 0.9588841748311867 9.7665266971424476 N
atom 1.5631643311600576 1.0031538067614203 4.5341867026217839 N
atom 6.3822127802009145 3.6767942275259302 4.4980970703588516 N
atom 8.0481920038072410 0.9566530780148476 15.0102014807297532 N
atom 7.8856157417100565 0.9527142057290459 9.7220572376239236 N
atom 8.0117781567238548 0.9475711277474040 4.4787031086570153 N
atom 0.0228198688611581 9.2919515878907575 14.9756957929653964 N
atom 0.0122350812275216 9.3125626360791962 9.8295386304499122 N
atom 0.0425176640652067 9.2371754365304213 4.5633727209419792 N
atom 1.5838253489321150 6.3638637932377309 15.0094238775097217 N
atom 1.6703346398618393 6.5806491827476092 9.8058873634709460 N
atom 1.5142363467093314 6.4370831320030177 4.6579434558791899 N
atom 3.2338460696040321 3.6697359563658485 14.9506821167288049 N
atom 11.2608102702018726 12.1299400322996114 4.5288043637825668 N
atom 12.8109986930835493 9.2939267213023058 14.9529852709121762 N
atom 12.8987370260203740 9.2449857371670223 9.8827910126555558 N
atom 12.8607629701865456 9.2755979924371434 4.5824250944123941 N
atom 14.3668967826207457 6.4345454471103007 15.0109868367190060 N
atom 14.3959749161916246 6.4789286820556793 9.8409251363472361 N
atom 14.3653304263510861 6.4987496035831089 4.5617437194805479 N
atom 6.3688375306435843 14.7514047904650720 14.8963497536360361 N
atom 6.2964281413701144 14.7760258525216059 9.7272871587461527 N
atom 6.3865487374458532 14.8133968548420150 4.5858424160896911 N
atom 7.9914069213895331 12.0821767462059810 14.9371118230112607 N
atom 7.9730290109300830 11.9843942197537050 9.8088082309851821 N
atom 12.8440330147401625 14.9086792434175663 14.9712635625969117 N
atom 12.7645240303160588 14.7819015578513113 9.6691692006767145 N
atom 12.8412973283996994 14.7798428309777083 4.5600614424390598 N
atom 14.4574780619050678 12.0206361494177809 14.9578041833300883 N
atom 14.4111722559427982 12.0471114855261447 9.8242623385866317 N
atom 14.4252076712584234 12.0014957329499659 4.5329974775448951 N
atom 9.6068382521293199 14.7610164050231170 14.9863782628319733 N
atom 9.6302451668766853 14.7642333074946634 9.8135133307158444 N
atom 9.6228873201937155 14.8357552730184192 4.5221790540429216 N
atom 11.1928014704082699 11.9785886792032077 14.9380508006681936 N
atom 11.1988525555073650 11.9990415956175926 9.7581637471835894 N
atom 14.4194883166510746 0.9249303632550242 9.7314485680154821 N
atom 14.3495238654091821 0.9428311836900179 4.5406378364841542 N
atom 3.2183254482887689 14.8534085045609832 14.9256605705931786 N
atom 3.1614843795626002 14.9521075495276961 9.9232104547402464 N
atom 3.1834926067185307 14.8315797410919270 4.6413306580550904 N
atom 4.8025957189013218 12.1167333797282186 14.9718379513255169 N
atom 4.7651938163662004 12.0086839079279706 9.7679083128044120 N
atom 4.7602346786832923 11.9992223947292427 4.6440723115714215 N
atom 6.4607713925544559 9.2871261463874841 15.1180834031441211 N
atom 6.4407973922462149 9.1960375021225200 9.7144004739639502 N
atom 6.3847284708709973 9.3287719093247237 4.6229794736592158 N
atom 8.0447938427834647 12.0608449472847301 4.5069837223030342 N
atom 9.5393039878280046 9.2350910141961648 15.0603155478327739 N
atom 9.6191363280282260 9.1628170109829572 9.8225852793126887 N
atom 9.5887732382459259 9.2430970236179348 4.5279636669588852 N
atom 11.1843389631146390 6.5066937011541173 15.0106081416373680 N
atom 11.2057524475749677 6.4658899711558213 9.8539504073984574 N
atom 11.1728623240246101 6.3957185662441765 4.5241946714050485 N
atom 12.8458350968085675 3.8026995479399774 14.9450846028680626 N
atom 12.8222736436793987 3.6972809208240056 9.7445479635621517 N
atom 12.7814581341021434 3.7062914100925899 4.5209241046133766 N
atom 14.3196085614521653 0.9259623305709513 14.8180682607502874 N
atom 6.4377871902499511 7.3204275539149490 1.9690861636028318 N
atom 8.0148817321778711 4.6078012221631290 12.4058538352808299 N
atom 8.0257984913344451 4.4954268131217114 7.2527649269529224 N
atom 7.9913475739532451 4.7434472677682216 2.0350923831299506 N
atom 9.5364301114720291 1.8313569936612697 12.3925064746069609 N
atom 9.6744079509119665 1.7883210514213155 7.0994302772780227 N
atom 9.6100485021073183 1.9138485569250452 1.9412822430294303 N
atom 0.0854490561196337 12.9080449154347860 12.3180106526849578 N
atom 15.9867568081514424 12.9817021658228136 7.1567012838720716 N
atom 0.0507814295416555 12.9522840838805990 1.9400027765843488 N
atom 1.6587140197900079 10.1416215614880816 12.3943514038184954 N
atom 1.6811034958680064 10.1147679368354808 7.2316346173999415 N
atom 1.4981412237453477 15.6902215346170042 12.3362296224891672 N
atom 1.6234126831481943 15.6683307517813422 7.2402801960074736 N
atom 1.5161240804407534 15.7927846057071442 1.9044476035125810 N
atom 3.1895829491901417 12.9060781068618518 12.4079743005066288 N
atom 3.2232294032156372 13.0104983255451465 7.2111425499574029 N
atom 3.2455077235171861 12.9686737706923090 1.9130635768226458 N
atom 4.8232918369248079 10.1447856918871366 12.3805392376399013 N
atom 4.8811793598884590 10.1319789351499061 7.2032101000435276 N
atom 4.8260573608494388 10.2253822060226529 1.9986119291059901 N
atom 6.3815179080863542 7.4701093297428605 12.3866317930555123 N
atom 6.4791655956535745 7.2878687686852572 7.1663668420767008 N
atom 15.9616489139111692 7.3903057405916810 7.2277822245040415 N
atom 0.0552855565017160 7.4757032000831183 1.9974900883983024 N
atom 1.5863581326519876 4.5664519504278225 12.3334284202661770 N
atom 1.5594260885905340 4.5979524971239298 7.1933038021224176 N
atom 1.5559229556340048 4.6020397715544847 1.9742323132544937 N
atom 3.1641318398715010 1.8464016493089588 12.4325885066031407 N
atom 3.2033236612228158 1.6683709556101842 7.0985124424985564 N
atom 3.2569273869395285 1.9155366733760579 1.9770295994998244 N
atom 16.0080073606129929 1.8893366696580440 12.3962732937043878 N
atom 15.9993056721659084 1.8715025407707528 7.0800898250376090 N
atom 0.0466692154519023 1.8329267652613477 1.9883481799367682 N
atom 1.6058340937875986 10.1984284296264001 2.0030951238959647 N
atom 3.1938609925485451 7.3904499728997513 12.3859099167742279 N
atom 3.2132848535669161 7.2999615424867041 7.2048237195746445 N
atom 3.2156387371436299 7.4554022278328373 2.0347381184500266 N
atom 4.7985034033638225 4.6186197373893645 12.3806036838308540 N
atom 4.8419648390635519 4.5485527909001728 7.1765679939784475 N
atom 4.7850252948128986 4.6451551394200514 2.0124943515766311 N
atom 6.4021616995382713 1.8446452844546790 12.4193046477887510 N
atom 6.3369945537950736 1.7841545538376846 7.0608303619453521 N
atom 6.4339644282892205 1.8622338413737596 2.0118439073897663 N
atom 0.0406302707000310 7.2791707416352454 12.4132151785901463 N
atom 14.4333801063655596 10.1647169390583993 1.9289473585854160 N
atom 8.0150716634549681 15.7860520270206859 12.3863168689334255 N
atom 7.9523319473708174 15.7035318246544957 7.1513469743621974 N
atom 7.9137962993862399 15.7782346702409395 1.9481609097627857 N
atom 9.6846780041629010 13.0587851998710285 12.3285769107804608 N
atom 9.6274662004404004 12.9598656313262364 7.1100079018058739 N
atom 9.6175201902929501 12.9732006822013837 1.8936442606073518 N
atom 11.3284640625116211 10.1512781453705951 12.3846024968849004 N
atom 11.2358783792144852 10.1731360628133558 7.1606420308380683 N
atom 11.2275691397224442 10.2343711272712170 1.8919745076930201 N
atom 12.7108394020005377 7.3183253297182826 12.4439622043392308 N
atom 12.6495718880751014 7.3886401312377270 7.1599641184345773 N
atom 14.4326825850857361 15.6900410833116286 12.4142785038119978 N
atom 14.3991907386086577 15.7235923424532196 7.1783392470026577 N
atom 14.3595464120639971 15.6267144276356333 1.9410738576060769 N
atom 11.2328361323822037 15.7697149881331100 12.3607218230831108 N
atom 11.1557061259397621 15.7649157210622679 7.0827887247122021 N
atom 11.2418100849341336 15.7003534657220865 1.9295727179334783 N
atom 12.8259018957987045 12.9540425144949509 12.3761603121745711 N
atom 12.8966936618222530 12.9017863144777483 7.0879825153483376 N
atom 12.8708336342811585 12.9320905116244074 1.9169887393322629 N
atom 14.4267626532374980 10.1178328044690637 12.4269656906487445 N
atom 14.4271506418250723 10.1982297990726707 7.1866549029617719 N
atom 8.0198583377290760 10.1953338507086819 7.1855602369754585 N
atom 8.0180271927659401 10.1364340447335675 1.9239528171394957 N
atom 9.5884333352534536 7.4405906018336694 12.4373832019804844 N
atom 9.5204647029029275 7.3888571161640204 7.1399192050938085 N
atom 9.6387926151003427 7.3992842064358939 2.0213844155655898 N
atom 11.2088883044790091 4.5370945206993918 12.4646326167835486 N
atom 11.1912610136335875 4.5832408145171168 7.1897201765321954 N
atom 11.1797395781777169 4.6172760415699816 1.9695481652119637 N
atom 12.8583973247139625 1.8719610768521560 12.4402277442043747 N
atom 12.8310898818287011 1.8611811867320140 7.1579197217056532 N
atom 12.6694992565063806 1.7610224981534384 1.9390901401176628 N
atom 12.8051729556650944 7.3616708116488851 1.9239030614996298 N
atom 14.3998265801113039 4.6215047271077934 12.3899515828204869 N
atom 14.3651640624525374 4.7611282178447931 7.2376996597358483 N
atom 14.3328464653745229 4.5789750817259769 1.9418720381594317 N
atom 4.8230727311021688 15.7566180577569757 12.4334419062360162 N
atom 4.6587183626797284 15.7032397735533351 7.1327039840543787 N
atom 4.7948615981886684 15.7096788253813280 1.9064852303717241 N
atom 6.4304900303778592 12.9251721484909119 12.3957736654031230 N
atom 6.4224401989660560 12.8986190960081455 7.1673175522481385 N
atom 6.3923726245979733 12.9313729648479825 1.9498181330963431 N
atom 8.0959162155747997 10.1031303838403836 12.3841317993167426 N
