#===============================================================================
# Created using the Atomic Simulation Environment (ASE)

# Thu May 11 09:00:36 2023

#=======================================================
lattice_vector 16.5841519999999996 0.0000000000000000 0.0000000000000000 
lattice_vector 0.0000000000000000 17.2347563186669994 0.0000000000000000 
lattice_vector 0.0000000000000000 0.0000000000000000 16.1779175999999900 
atom 0.0524161013526380 15.2821002655174993 2.6310814431058778 Ga
atom 1.6189784231381048 12.4365570973925639 13.4939250976151435 Ga
atom 1.6450729250062641 12.4081292034287856 8.1409339236119180 Ga
atom 1.6878861489472541 12.4950642341077689 2.6803845362823009 Ga
atom 3.3299751914775713 9.5822934928456078 13.5731788992526852 Ga
atom 3.3381507112302145 9.5300871511918430 8.1020435539690183 Ga
atom 3.1943635292048627 9.5300819281251758 2.7165262993582333 Ga
atom 4.9658715936034357 6.6985372712094300 13.5251128550764932 Ga
atom 4.9729418549506637 6.6736392011810830 8.1327213620210372 Ga
atom 5.0250238266045173 6.6185626763617984 2.6776174933358470 Ga
atom 6.6004659637036234 3.8125370494848041 13.5334399095410021 Ga
atom 6.5893542308653528 3.8218381324032640 8.1236918607363222 Ga
atom 8.2718059217076387 6.6665387197491981 13.4367252153517978 Ga
atom 8.2738329916673621 6.6840743184865241 8.0877071482467269 Ga
atom 8.2804803536569125 6.7474812006609604 2.6683075119612516 Ga
atom 9.9394306532191603 3.8072082551004627 13.4710273329806824 Ga
atom 9.9704475837875002 3.8465555822600179 8.0140393635881448 Ga
atom 9.9101975631648518 3.7976796429232387 2.7040000244643152 Ga
atom 11.6371597403226659 0.9367602018278264 13.5166561274571198 Ga
atom 11.6178716541122711 0.9154624595969529 8.0493492990747768 Ga
atom 11.6119963508075656 1.0127514476313402 2.7310452451952090 Ga
atom 16.5447659428644407 15.3480324698758519 13.5081336340029097 Ga
atom 0.0526719493444191 15.2915955491558719 8.1020499486258331 Ga
atom 3.3378248204111096 3.8872724873340347 8.1014806536694781 Ga
atom 3.2957131688413814 3.8525161489184359 2.7092780452022658 Ga
atom 5.0250614902878654 0.9927165620526202 13.4960811452725018 Ga
atom 4.9298471254021967 0.9273653220642416 8.0276853846019343 Ga
atom 5.0071762147984211 0.9636187687804019 2.6421228795195471 Ga
atom 0.0130487413683211 3.8033664660006328 13.4627740169032197 Ga
atom 0.0497191895556320 3.8627936585748675 8.1094395698637154 Ga
atom 16.5552047134197444 3.7296339988033589 2.6549780424181542 Ga
atom 1.7006435456365290 0.9251137539142279 13.4533050837355752 Ga
atom 1.7346346150565140 0.9711365995417790 8.1283826691258660 Ga
atom 1.6312793437149551 0.8998933272499023 2.6976867555500768 Ga
atom 6.6299949477851357 3.8916647205487496 2.6325889887625946 Ga
atom 8.3145152393444803 0.9798544812400158 13.4355469505937641 Ga
atom 8.3018353317569922 1.0013613184118899 8.0934358666769679 Ga
atom 8.3017415137671353 1.0020590513812744 2.7340394204662775 Ga
atom 16.5412932357121036 9.5455343945388815 13.4357466284795333 Ga
atom 16.5414717851080688 9.6112210337134751 8.0453103375601245 Ga
atom 0.0142670165487844 9.6008695931317849 2.6830353247274421 Ga
atom 1.6141857867895364 6.6841144371362358 13.4844129203662533 Ga
atom 1.7050151216485137 6.7361461291807565 8.0500402614499631 Ga
atom 1.5949305038918264 6.6846608128934788 2.7079227627948659 Ga
atom 3.2975173267214242 3.8081638094684305 13.4384441837968200 Ga
atom 11.5625394855549111 12.4187759385919243 2.7263996799879826 Ga
atom 13.2527590147005920 9.5303942501581247 13.4499013468005870 Ga
atom 13.2524823236964941 9.4914071534165760 8.1421728729649931 Ga
atom 13.2455855846222459 9.5415647044407148 2.6835019564576510 Ga
atom 14.9334778278014024 6.7218734191106710 13.4781803895304186 Ga
atom 14.9186494620212766 6.6806298260958235 8.0966057034117913 Ga
atom 14.9067100652376983 6.6636543606619068 2.7057293435324432 Ga
atom 6.6809646918397236 15.3561128261577320 13.5325060049516530 Ga
atom 6.6180074747693185 15.2817691785657264 8.0548748190453701 Ga
atom 6.7238814343691136 15.3300287003403177 2.7069165071722927 Ga
atom 8.3288674820422717 12.4704562679521143 13.3894400550750845 Ga
atom 8.3201717714985932 12.4682755351496901 8.0858521597380157 Ga
atom 13.2999228915139245 15.3566200169676677 13.5009952066310586 Ga
atom 13.3373417777427381 15.3515626146895290 8.0776812859152969 Ga
atom 13.2444448964845947 15.3558774738283308 2.6544097554093220 Ga
atom 14.9150200252891985 12.4504165512535234 13.4556848651801726 Ga
atom 14.9100361538546533 12.3974112430459815 8.0967581393487311 Ga
atom 14.8767875067509880 12.5113595772651891 2.7188274567492194 Ga
atom 9.9214298713382885 15.2572048734716059 13.5077471664897910 Ga
atom 9.9320115443067536 15.3813998990370386 8.1135722313193774 Ga
atom 9.9344275158326116 15.3693087384493374 2.6860533814687031 Ga
atom 11.5434763677661696 12.5142439040240436 13.4665611694183944 Ga
atom 11.5948937223500081 12.4698253974718405 8.0650301649919900 Ga
atom 15.0368197713243639 0.9534257723374814 8.0629352589319030 Ga
atom 14.8938180821778499 0.9779849442297122 2.6631341706633576 Ga
atom 3.2833406471377140 15.2793438497341825 13.4616448336707908 Ga
atom 3.3296662504623273 15.3386830329751227 8.1758553008527954 Ga
atom 3.3351571451276123 15.2965423606161135 2.6936555375555633 Ga
atom 4.9562114647308517 12.5330860897401610 13.5025213791300480 Ga
atom 4.9581325138395469 12.4081131804788605 8.1083324642586501 Ga
atom 4.9964951539697298 12.4297562526583629 2.7052076714284881 Ga
atom 6.6336538821415623 9.5562858455573831 13.4592065946907287 Ga
atom 6.6734632094345478 9.5556326575993289 8.1125189164359757 Ga
atom 6.6446454762765326 9.5368041357341742 2.7043279683045394 Ga
atom 8.3255520743945155 12.4878360438669702 2.7187643493291769 Ga
atom 9.9400160436969625 9.5714021515330980 13.4489443764546213 Ga
atom 9.9148086397572115 9.6260137427191577 8.0899527447511161 Ga
atom 9.9596919918136688 9.5901853341566135 2.6876397142773563 Ga
atom 11.5739752358936734 6.6759284102548486 13.4494505403504654 Ga
atom 11.5805190072028523 6.6260480601636544 8.0347981112511366 Ga
atom 11.5205593764837477 6.7153843159428277 2.7019942785541384 Ga
atom 13.3050808262502223 3.8505971827042216 13.5210378346488671 Ga
atom 13.3272302858955758 3.7773617218678153 8.1263865167695215 Ga
atom 13.2933140084257584 3.8211796652130574 2.7362180087751362 Ga
atom 14.9317436178311134 0.9491820411536518 13.4775325676000897 Ga
atom 6.6142270428545933 7.6290781474943064 5.3234146147597272 Ga
atom 8.2637567384836004 4.8395831993959009 16.1398663722301379 Ga
atom 8.3340650716974967 4.7610535112232393 10.7442828155221832 Ga
atom 8.2957316508805707 4.7617167281573476 5.3540050311225862 Ga
atom 9.8796217367226244 1.9546880758380716 0.0330056082617707 Ga
atom 9.9240530875559525 1.9000919817964068 10.7461680684467051 Ga
atom 9.9524780721645474 1.9256397478029856 5.3732358656987707 Ga
atom 0.0125671021542400 13.4148379242882534 16.1399296588277359 Ga
atom 16.5004537730850380 13.3803974085040096 10.8008387310693035 Ga
atom 0.0857276078780869 13.4520953815365925 5.3945608478726879 Ga
atom 1.6486691250124432 10.5312721051493341 16.1615009503969915 Ga
atom 1.6420425329052355 10.5206701678732806 10.7017225784828973 Ga
atom 1.6442684739728080 16.2706792345295774 16.1459370712520425 Ga
atom 1.6719060192395512 16.2501625808054371 10.7500692171778063 Ga
atom 1.6438908250281055 16.2969364291781815 5.4036790768146306 Ga
atom 3.3018617924892855 13.3686177329881275 0.0032109607413845 Ga
atom 3.3210294510273175 13.3979844691970289 10.8038055554702908 Ga
atom 3.3359047175440435 13.3922506172902036 5.3749579246264378 Ga
atom 4.9403181629967561 10.5064106862401037 16.1512671391341627 Ga
atom 5.0120115441203721 10.5797208051652625 10.7970531192166952 Ga
atom 5.0387399048001660 10.6008742463541648 5.3847274060654478 Ga
atom 6.6434067311954967 7.6668611135845124 0.0504859981198893 Ga
atom 6.6115777284245940 7.6495460316501882 10.8361964972903699 Ga
atom 16.5289044687938826 7.6680390662064406 10.7578879935100726 Ga
atom 16.5597471232940947 7.7171206832555006 5.4263133133477828 Ga
atom 1.5869970019477226 4.7929873180911828 0.0278177176363110 Ga
atom 1.7287047005261817 4.8446750793562954 10.8294872988442243 Ga
atom 1.6448905463821766 4.7647289022177572 5.4229770519547147 Ga
atom 3.2691914065776135 1.9075413669129124 0.0733846991032620 Ga
atom 3.3621652554069246 1.8469730766463359 10.7977136287859992 Ga
atom 3.3166218063371828 1.8961011808355754 5.4073906778767382 Ga
atom 16.5474533556439312 1.9162871724253820 16.1172478187490746 Ga
atom 0.0046293758848225 1.9397907155058483 10.8748598754307935 Ga
atom 16.5813759554857043 1.8022738382752825 5.3543188827279087 Ga
atom 1.6387873776446009 10.4661224023138590 5.4324656784372278 Ga
atom 3.2575251901389657 7.6091901585949291 0.0686946486234347 Ga
atom 3.2503071436778517 7.6452584554577543 10.8792598018958291 Ga
atom 3.3197116788131562 7.7931774631863480 5.3470858832465229 Ga
atom 4.9564017024192282 4.7695481499212740 0.0234602007235389 Ga
atom 5.0253828274986745 4.7836729223754757 10.8054110458565695 Ga
atom 4.9871777984662344 4.7816911299212697 5.3405679271694968 Ga
atom 6.6598188874938744 1.8583667616359225 16.1735672297643411 Ga
atom 6.6748598277296631 1.8750581080315978 10.7492484056271582 Ga
atom 6.6387896829468573 1.9987444341595917 5.3501656004154015 Ga
atom 16.5398005425024941 7.7006376913288239 0.0885346991769491 Ga
atom 14.8657730142043665 10.5290916541653363 5.3232079798643150 Ga
atom 8.2989438072041484 16.3183604218256448 16.1393906608201760 Ga
atom 8.3613106582269321 16.2379426758495242 10.8648564992573284 Ga
atom 8.2914803708423843 16.2406951876765078 5.3780421730727879 Ga
atom 9.9959185947888436 13.3930273459407960 0.0514567626975288 Ga
atom 10.0275363015203069 13.3810034868698757 10.7942260241559040 Ga
atom 9.9435042566061984 13.4374821336277392 5.3411731709136383 Ga
atom 11.6303762454039639 10.5025727862531735 16.1513871681976440 Ga
atom 11.5536403924452014 10.5229489383663282 10.8077443600047438 Ga
atom 11.6050007708719907 10.5389234341614060 5.4521312470134982 Ga
atom 13.2527749801594101 7.6649384539839067 16.1761275528416810 Ga
atom 13.2009332718363552 7.6207842431256152 10.8472282718891009 Ga
atom 14.9121889072317089 16.2697840817478330 0.0364684991546891 Ga
atom 15.0590078349073213 16.2592200798344528 10.7580544059588412 Ga
atom 14.9083595763084791 16.2839682589928607 5.4070096874639528 Ga
atom 11.5809711315754154 16.2419556623660739 0.0397621022504650 Ga
atom 11.7377974219944132 16.2710755548523629 10.7332920373320242 Ga
atom 11.6462790982487157 16.3311619239009644 5.3896896481728627 Ga
atom 13.2293023414963464 13.3665579001061445 16.1448073629894040 Ga
atom 13.3003161569653265 13.4257857240288185 10.7163730408978140 Ga
atom 13.2470364664394911 13.4177314863007595 5.4120671054226692 Ga
atom 14.9665651075519559 10.5702367153099850 0.0039203914828756 Ga
atom 14.9308058770138974 10.5562942148772567 10.7560346097037307 Ga
atom 8.2535946865645773 10.5340341082322837 10.7709647897668876 Ga
atom 8.2674852674378556 10.5407675600617186 5.4419008393407315 Ga
atom 9.8714204326314636 7.6699891092680632 16.1700126715794674 Ga
atom 9.9634986836728618 7.7507010924562696 10.6745206335386538 Ga
atom 9.8967050947471424 7.6394292962646846 5.3926518768560125 Ga
atom 11.5596516528638276 4.8739150790945285 0.0428973144129595 Ga
atom 11.6236591473710167 4.8235489625623149 10.7437450731779336 Ga
atom 11.5656393065265117 4.7612156676233877 5.3658946149956481 Ga
atom 13.2565878795519385 1.9337848291050213 16.1761399613064185 Ga
atom 13.3272157177528960 1.8945267408005888 10.7989889188623174 Ga
atom 13.2958962081886671 1.9467950955261404 5.3570651999077663 Ga
atom 13.2358345264427921 7.5536547330158248 5.3825466782598275 Ga
atom 14.9316973325035374 4.7905119404552083 16.1392197470890899 Ga
atom 14.9403993207933734 4.8037130336477860 10.7675482137533773 Ga
atom 14.9943974651812226 4.7910717899061437 5.4177372041419121 Ga
atom 4.9665775127068077 16.2686152919161948 16.1644221857422963 Ga
atom 5.0044493690632850 16.3396825314548266 10.8219221433207551 Ga
atom 8.3060462151898538 10.5996729873701554 16.1394839107667458 Ga
atom 6.6579732396956324 13.3705593114151373 5.4046332642845529 Ga
atom 6.6304689152666896 13.4460548941419287 10.8292927188001897 Ga
atom 6.6437954632366072 13.4621120156291347 16.1761971514400358 Ga
atom 5.0028020356696112 16.3151331688248078 5.3974724398419998 Ga
atom 3.3346990408249364 9.5331432661927860 10.0660483745906060 N
atom 3.2698914468219926 9.5254679876840562 15.5591329568143646 N
atom 1.6818415131109570 12.4104710435520857 4.7119220439858314 N
atom 1.5822670444060916 12.3916367407603278 10.0877765475729042 N
atom 1.6522171497415143 12.4613256415545681 15.5491371692972749 N
atom 16.5757013511050282 15.3380079656031914 4.7188148443111571 N
atom 3.3806398301014138 9.6042842869945328 4.7676639195554777 N
atom 5.0215425680736816 6.6180339922154854 15.5704354366380429 N
atom 4.9576962889724516 6.6027599464484377 10.1942723387092737 N
atom 4.9414069902132685 6.6968334359080863 4.7524369530960788 N
atom 6.6134634879737906 3.8864693779679498 15.4876930626919851 N
atom 6.7278053719667570 3.8926631479703775 10.0229360356691313 N
atom 8.2651895268994693 6.6843346372157750 15.4613249273233322 N
atom 8.2754136097859305 6.7443896755341859 10.0575714681185531 N
atom 8.2861541905406142 6.6962374167464871 4.7296487600140082 N
atom 9.8600848521530740 3.9006869202481478 15.5222840559776500 N
atom 9.9874725973013980 3.9068183187373919 10.0932624270642766 N
atom 10.0276181789381358 3.8133909456605108 4.7735629697348250 N
atom 11.5131025102447495 0.9892404068055645 15.5265085214793057 N
atom 11.6698799712715324 1.0275747252681799 10.1081150282460843 N
atom 11.5599552612299039 1.0368618350379815 4.7497118723150056 N
atom 0.0415393592085744 15.3492675504521738 15.5031239233592029 N
atom 0.0564284448883722 15.2863012307099755 10.2181170730428388 N
atom 3.2429138662442480 3.8125813337844248 10.1526486265741678 N
atom 3.3081170879100457 3.8102669083365259 4.7617025880220778 N
atom 4.9181643886180790 0.9630474027547232 15.5493115481778243 N
atom 4.9917153749117080 0.9780831121670053 10.1168295009303648 N
atom 4.9779374999498511 1.0097852575198221 4.7327406508482888 N
atom 0.0003338325631857 3.8120898092852573 15.4620848798837365 N
atom 0.0411044658268222 3.8571892953460893 10.1822232598886693 N
atom 0.0170888224697652 3.7306530471195591 4.7128093269325264 N
atom 1.7142362907810644 0.9464265879964499 15.5583594537958376 N
atom 1.6135841297402744 0.9633755121162448 10.2020566162013964 N
atom 1.7334240323114039 0.9032372451630980 4.8159884797618711 N
atom 6.6109960434231452 3.9031243114345298 4.6649455027562752 N
atom 8.1536450704913843 1.0064474337271845 15.4325386458790348 N
atom 8.3210845374086215 0.9280468053718575 10.1149554160858575 N
atom 8.3001619115577316 1.0210674429207347 4.7724505856353678 N
atom 0.0436090068935964 9.5228026600803730 15.5580068703500221 N
atom 16.5440639425242075 9.6025944141409578 10.0647710846276190 N
atom 16.5338343632701630 9.6175779493802054 4.6508667648603330 N
atom 1.5726987192344846 6.7137331769831698 15.5177653374170799 N
atom 1.6671009576714924 6.7444637595204524 10.1036750239154838 N
atom 1.6407836624988534 6.7278973191902152 4.7971135887888705 N
atom 3.3065584234087972 3.8266596297276392 15.5238505633932995 N
atom 11.5947753704472927 12.4134726029260012 4.8178715816869708 N
atom 13.3090425630605509 9.6287093714710963 15.5486821667187041 N
atom 13.2491318371169253 9.5007794845281133 10.1953103625664756 N
atom 13.2947569744970693 9.5553117740160776 4.7568733137398178 N
atom 14.9134647508363862 6.7437465182713527 15.5267118669294089 N
atom 14.8349989724797204 6.7504024374871774 10.0664926513089767 N
atom 14.9073997003555885 6.6365911749270206 4.7624833667807840 N
atom 6.5742783402740192 15.3700128139138332 15.4938461631101703 N
atom 6.6714491896238046 15.3324626451802040 10.1066291830562491 N
atom 6.6550478235695909 15.3703492300414979 4.6545773163636968 N
atom 8.2819027274507047 12.4622189259084521 15.4689092815545184 N
atom 8.2769669168191644 12.4439302353769889 10.1415425595293307 N
atom 13.2700128494456102 15.3408444984678169 15.5254941894130081 N
atom 13.3857676195700233 15.4138496057076964 10.0415108610292307 N
atom 13.2521446122112696 15.2822888927428231 4.6548867409024144 N
atom 14.9127513879161562 12.3874354793635746 15.5192251420342657 N
atom 14.9492596978387038 12.3528283106767596 10.1002348418055021 N
atom 14.8979224245456834 12.4917472600352184 4.8168116589907193 N
atom 9.9882762266680682 15.2839456863906964 15.5841724910287471 N
atom 9.9714188539612927 15.2290586124440175 10.1806923339326136 N
atom 10.0285838601921728 15.3555923391393510 4.6724991922062067 N
atom 11.6646822820405820 12.3938985802675621 15.5078341992634048 N
atom 11.5989836952249430 12.4801115460926191 10.0592429064551308 N
atom 15.0900299040328676 0.9770801614649680 10.1522975021173494 N
atom 14.8737865284279867 0.9417882548107245 4.7374815730985222 N
atom 3.3334071650002812 15.3213959858346254 15.4756128290622961 N
atom 3.3650490180553922 15.3653208089421280 10.1643544772944399 N
atom 3.3827045557905580 15.2595201365588213 4.7447027221599791 N
atom 4.9940074754310571 12.4398666224695198 15.5047232244123272 N
atom 4.9988295900036679 12.5551166583519258 10.1013212959319976 N
atom 4.9942506338333921 12.4546277568632142 4.7109649393421185 N
atom 6.6253341262298271 9.5480930620179691 15.4422056964897898 N
atom 6.6196851234235128 9.5458201478765083 10.1643202786721201 N
atom 6.6133949933651177 9.6013162458305459 4.8089389517161445 N
atom 8.2993482129608136 12.4232708645465149 4.7251463792345856 N
atom 10.0416636218444975 9.5370582749460286 15.4895327163732706 N
atom 9.9549646636528522 9.6982461283067334 10.0928931404532189 N
atom 9.9331974934269560 9.5073851805847855 4.6863180605950046 N
atom 11.5854551354817641 6.7747632396512207 15.5665494562632727 N
atom 11.5399043882655477 6.7548080953489160 10.0017492010288365 N
atom 11.6078175436484479 6.5848140480387753 4.7444272805358016 N
atom 13.1919946029356812 3.8316672883859670 15.5286425395279473 N
atom 13.4042183390331964 3.8000619298791021 10.1584547834355483 N
atom 13.3094960379419724 3.8878631708165519 4.7957489151669561 N
atom 14.8916244954251251 0.9516375382293512 15.4739275225224535 N
atom 6.6183630642757132 7.6348753190122221 2.0512100104153248 N
atom 8.3454107959704693 4.7931410524875755 12.7078019587649607 N
atom 8.2833434253531522 4.6892077707254236 7.4418339828650772 N
atom 8.2812427425161026 4.8105557107312586 2.0140573300827040 N
atom 9.9602507604076713 1.9175925112169339 12.7257288342278905 N
atom 9.9982390377717252 1.8655071106017764 7.3942817059581580 N
atom 9.9013454014279780 1.9664067948470101 1.9911851092614312 N
atom 0.0350989421002085 13.3544279449230263 12.8473503166659171 N
atom 0.0265895381205997 13.3310219166232624 7.5107153112563134 N
atom 0.0077027405693625 13.4652142614201242 2.0362521398212055 N
atom 1.6685353309208351 10.4746487207693395 12.7661589436907885 N
atom 1.6572304993195033 10.5404088021776730 7.4436944283326127 N
atom 1.6306293162604484 16.2598162749992774 12.7515722046503939 N
atom 1.5699280325746137 16.2270946861009335 7.5060223033607736 N
atom 1.6270042695557312 16.2304037449503262 2.0172586402964838 N
atom 3.2753037903246223 13.3053842917598146 12.7512061904450906 N
atom 3.3057989986311127 13.3700532468001843 7.3897201113170494 N
atom 3.3418616708242195 13.4558043945487338 1.9749919951005190 N
atom 4.9727102378988555 10.5117259559586138 12.7872099989140828 N
atom 5.0242459930942243 10.4914546569392915 7.4649042442861306 N
atom 4.9859618188307557 10.4893199633534842 2.0035910874520018 N
atom 6.5951743908555116 7.7066205845404996 12.7948100731763539 N
atom 6.6065070909925767 7.7171629666262822 7.4117274813400993 N
atom 16.5645893556419495 7.6722331681521947 7.4567242508871345 N
atom 16.4988506611703158 7.6555840926288283 2.0663711831853968 N
atom 1.5885646281946872 4.8514300276024782 12.8580709717737545 N
atom 1.7139817831370323 4.7368168183528878 7.4003639593504102 N
atom 1.5446561819790476 4.7628792345884037 2.0375819764987355 N
atom 3.3321369552152929 1.8885669946749593 12.8153298859922771 N
atom 3.3465621806909782 1.9191355266021304 7.4911735108809090 N
atom 3.2604704059116041 1.9288864075277372 2.0861287754015381 N
atom 0.0549980504470845 1.9240029394930540 12.8799763872724888 N
atom 0.0282997004613527 1.8569212511333355 7.5035517046513256 N
atom 0.0568609780544087 1.8699702113961758 2.0395150902589725 N
atom 1.6677997674538847 10.5271203742935846 2.0412995363818065 N
atom 3.2704377858469789 7.6546110670498893 12.9049018902816677 N
atom 3.3035836897179496 7.6374874031036226 7.4640415893211927 N
atom 3.2198274860887284 7.5695683690695317 2.0754832800444376 N
atom 4.9842443378823313 4.7325077385340650 12.8593070774996328 N
atom 5.0423342353971154 4.8324882188251390 7.4180374849888686 N
atom 4.9646490541373147 4.7559354430361420 2.0260294764460873 N
atom 6.7357657723836546 1.8798543225015243 12.8150674619387175 N
atom 6.6401127438266938 1.9200568389748580 7.4379548766677166 N
atom 6.5927770982648655 1.8697212685300499 2.0287114816023646 N
atom 0.0149722171722956 7.6308959708787318 12.7902704157682141 N
atom 14.8814072295153714 10.5411376547370068 2.0864476534324718 N
atom 8.2666353359098661 16.3389399982790771 12.9037460885476616 N
atom 8.2516869246315316 16.3483567784624313 7.4524894206325811 N
atom 8.4250842711281297 16.3270841726410758 2.0355612480129630 N
atom 10.0556318677716092 13.3674162003578960 12.8552434748054409 N
atom 9.9651646440915265 13.5692237473629280 7.3161678731848259 N
atom 9.9907681424023504 13.4452099834815346 2.0898567629613574 N
atom 11.5793068651938800 10.5742360593154707 12.8488328597424886 N
atom 11.8392562774097208 10.5747954818228873 7.4789549210328126 N
atom 11.6969260423988111 10.4767753058114526 2.0328127183309022 N
atom 13.2185930069920339 7.6176076578413721 12.8217093206510597 N
atom 13.2106113205916600 7.5892358873143797 7.3575756297410368 N
atom 14.9423612476920855 16.3187531325886184 12.8333187346780075 N
atom 14.9722238426909193 16.2542801712803460 7.3661218670188617 N
atom 14.9116833482354849 16.3076286138517936 2.0551945542462198 N
atom 11.5732789047952220 16.2013015174514088 12.8182298437249074 N
atom 11.6378168184885986 16.2020773954937027 7.3437720614303066 N
atom 11.6132147847305376 16.3546618574541931 2.0161654298236322 N
atom 13.1583170304530555 13.4001233130233217 12.7454805644891582 N
atom 13.2429289061330522 13.4690187672206712 7.4379769351824896 N
atom 13.1894429831974556 13.3862063110339200 1.9866297984849333 N
atom 14.9252799513811514 10.5291464532763825 12.8229300388721086 N
atom 14.9169930204451529 10.5217864022945911 7.4427504536856919 N
atom 8.1970995115393794 10.5765702987955912 7.4487506750583048 N
atom 8.3024923391334724 10.4762667622470431 1.9665753526913203 N
atom 9.8539966849168295 7.7063063762882509 12.7825865916677746 N
atom 9.8824480873105536 7.7077951839985728 7.4208364007543643 N
atom 9.8861665623813728 7.7317348716055463 2.0085676792624803 N
atom 11.6658184081738767 4.7546504955017177 12.7916543780478769 N
atom 11.6092348792359008 4.7382876925917730 7.3442694469584975 N
atom 11.5787807097818938 4.7984829022517044 2.0745629974450019 N
atom 13.3324481323349069 1.9532809261843067 12.8586512076831649 N
atom 13.3490735618484262 1.9225433654961819 7.3846140013615562 N
atom 13.3226203794302354 1.8915967670287110 2.0481300618001406 N
atom 13.2836046859257166 7.6302665228254680 2.0385181871159639 N
atom 14.9975853743199892 4.7223138118362105 12.8121490965042231 N
atom 15.0669706420198395 4.8183691582776822 7.4203134396175541 N
atom 14.8665366782604664 4.8022995527040848 2.0049570488044481 N
atom 4.9798382744338747 16.2744847749692561 12.8040398061530336 N
atom 5.0247167850242773 16.2382369040804093 7.3945645026994677 N
atom 4.9899445700099827 16.2823725907416836 2.1328354422499607 N
atom 6.6302972341549884 13.4780852525936456 12.8077235616617102 N
atom 6.6698567252900682 13.3818842842233110 7.4060093199785619 N
atom 6.6182888943123430 13.4198084828465536 2.0503138715343319 N
atom 8.2634817816839448 10.5264165154591147 12.8167814293364284 N
