#===============================================================================
# Created using the Atomic Simulation Environment (ASE)

# Thu May 11 09:00:35 2023

#=======================================================
lattice_vector 16.4884741999999989 0.0000000000000000 0.0000000000000000 
lattice_vector 0.0000000000000000 17.1353250322131494 0.0000000000000000 
lattice_vector 0.0000000000000000 0.0000000000000000 16.0845834599999904 
atom 16.4674953697508997 15.3013892635088435 2.6395118566318807 Ga
atom 1.5201338029723324 12.4431722022854423 13.2628281693311258 Ga
atom 1.7514022900404833 12.3575858961756815 8.1954465111868409 Ga
atom 1.6415592923765667 12.5014317854521089 2.7836112051993247 Ga
atom 3.2557230259066778 9.5316033058889111 13.5354190722748839 Ga
atom 3.3908799457374652 9.6082557763258105 8.1276430124504078 Ga
atom 3.2703561162360475 9.6259533120683685 2.5169059024290763 Ga
atom 4.8698013113730871 6.5233249949286574 13.5317351674924229 Ga
atom 4.9591909655226285 6.7488289168472964 8.3105857470386439 Ga
atom 4.9624000783580495 6.5213247576139386 2.8843987249406662 Ga
atom 6.7060867073658876 3.8545329501475840 13.4210257224654956 Ga
atom 6.4620201262121340 3.7487569900866782 8.0455953148406447 Ga
atom 8.1639983495522497 6.7769859950461235 13.5145581530706540 Ga
atom 8.3438528723500660 6.6015997351307423 8.0222585624557610 Ga
atom 8.2441581456171562 6.8112200171956312 2.7316647620903840 Ga
atom 9.9038821368696830 3.7916375683389907 13.4595058523675100 Ga
atom 9.9455067061356583 3.7137144574397873 8.1076514957918899 Ga
atom 9.7011453319400900 3.8273518850460495 2.7689895353768041 Ga
atom 11.6844240132632837 1.0298779504794047 13.2757251263876235 Ga
atom 11.5846132772926076 0.9454702506871102 8.0571168768367531 Ga
atom 11.4996984907739375 0.9898230809432382 2.8202378802463284 Ga
atom 16.3213445744624828 15.0742619041802772 13.3456034513719537 Ga
atom 16.4649488221049864 15.2971348473349114 8.0354505826774378 Ga
atom 3.3396478310180386 3.7520433731662624 8.1266601673592263 Ga
atom 3.2696991997712459 3.8596806269916968 2.6956082598058586 Ga
atom 5.0963525113538708 1.0695770734585528 13.4475371535487778 Ga
atom 5.0486555398033772 0.9640306042641206 7.8246794908458135 Ga
atom 4.9991109971669339 1.0207534318722158 2.6681642299396504 Ga
atom 16.3772645498400884 3.8904775041050312 13.4648001099470562 Ga
atom 0.0270102007931026 3.7522127432772199 8.0222373521581982 Ga
atom 0.2281925612867435 3.8837525830830337 2.6301275926012768 Ga
atom 1.7201733894571158 0.8322982003233452 13.2857721676405145 Ga
atom 1.6759391435496278 1.0263059774137693 7.9880732964071575 Ga
atom 1.6482437467170379 0.9955957685430858 2.6737437161976905 Ga
atom 6.6477224064764746 3.9379200481654637 2.7305461665731450 Ga
atom 8.3417085423082824 0.8108846630951287 13.3691790300277447 Ga
atom 8.2323822940386702 0.9324381528001381 8.0531252595091214 Ga
atom 8.2751588910033540 0.9045362012038087 2.7659692538866301 Ga
atom 16.3669709240011905 9.4114961881014434 13.5190362027294420 Ga
atom 0.0328047382706392 9.4598285910007007 8.1197029228814053 Ga
atom 0.0881892323239738 9.5571229470774739 2.5470362258528705 Ga
atom 1.5876521119077671 6.6218395219199859 13.4129686283088692 Ga
atom 1.8118346166139356 6.6889753174589410 7.9249318352978362 Ga
atom 1.7555851610205160 6.6280213989705299 2.8469736445973681 Ga
atom 3.0059948483632475 3.7769034558627679 13.3604112549446707 Ga
atom 11.5773442281949492 12.4762396798134549 2.7214025425633541 Ga
atom 13.1253945191879389 9.4715529694778535 13.3809135923751032 Ga
atom 13.2102333141433004 9.2575988840489067 8.0386895285141620 Ga
atom 13.1141688432066896 9.4348104194217619 2.9052907655747555 Ga
atom 14.8912639253248535 6.7278037988001449 13.5265442025135716 Ga
atom 14.9289124072607553 6.4558489240553136 8.2404176200751600 Ga
atom 14.7546366778307014 6.7210452659581970 2.5800317456026427 Ga
atom 6.4786788332266854 15.1974345737910106 13.3378905142053590 Ga
atom 6.5445455344450725 15.3152747160035272 8.1305469736369798 Ga
atom 6.5708369142944729 15.2453677252755480 2.6431143451717158 Ga
atom 8.1323687498643551 12.3375580832816958 13.2342502065471646 Ga
atom 8.2822638177773218 12.4330322310049226 7.9607828153097540 Ga
atom 13.2619709288053969 15.1530131867289999 13.4339469794229078 Ga
atom 13.0892479801512902 15.2690068049289298 8.0247989583731947 Ga
atom 13.1296448583992191 15.3099925464363906 2.5728328684503774 Ga
atom 14.8818778299517227 12.2980972645832853 13.3502018544012984 Ga
atom 14.9821417913655885 12.2230433848517972 7.9043380534573489 Ga
atom 14.9275605528524569 12.4416659415240982 2.7334279381395850 Ga
atom 9.8429549578921272 15.0451599163420138 13.4598589819301058 Ga
atom 9.8432481687330977 15.2997442075278816 7.9932131852694255 Ga
atom 9.6943202592775073 15.2798044144181127 2.7552790062490793 Ga
atom 11.5295441135251906 12.2545264871294215 13.4316957695628219 Ga
atom 11.6194586415351786 12.2969979309924913 7.9804581436375344 Ga
atom 14.8973805609926071 1.1795552489527887 7.9492007569675387 Ga
atom 14.8195247030848094 1.0506588290839742 2.5035114155621976 Ga
atom 3.2174723012528998 15.3090999447990352 13.3750902464535422 Ga
atom 3.2978517163204195 15.1787979134421125 8.0172039176653964 Ga
atom 3.2073626139485700 15.3299077141080442 2.7247212472312516 Ga
atom 4.8459185028901866 12.3586559319703984 13.2015350401844316 Ga
atom 5.0159717113029938 12.4865081683960462 8.0513154554102400 Ga
atom 4.9767656683981363 12.5726705538139818 2.5915935441306925 Ga
atom 6.5515448079699814 9.4098822249556360 13.3304701262999998 Ga
atom 6.6876162897438762 9.5655808297853664 7.9169699699846587 Ga
atom 6.5133304165268342 9.6697954404011988 2.6005509098777595 Ga
atom 8.2608200360426238 12.4550545128513210 2.6771012030470258 Ga
atom 9.9591113023690756 9.4896608727737100 13.4918209995369534 Ga
atom 9.8998800250544612 9.5954118405773414 8.0055013214164514 Ga
atom 9.9251857164083237 9.5562467511901321 2.6919856834480083 Ga
atom 11.5475051283286074 6.5810388826143003 13.6252606067873323 Ga
atom 11.4707743205232315 6.5689141147190542 8.0327304524942420 Ga
atom 11.4379499778602423 6.5529932067573347 2.6696867560628297 Ga
atom 13.1905746601431311 3.8719563827181309 13.4743533850756165 Ga
atom 13.1730251505811502 3.9359055999588590 7.9898925893409789 Ga
atom 13.2316164052363803 3.7230196159919808 2.4990383572267945 Ga
atom 14.9919422646070792 0.9930056543664447 13.3887748507089288 Ga
atom 6.7626219859725500 7.6384185868450460 5.3803076607898985 Ga
atom 8.3359065031740105 4.7381603520314819 0.1862616306855177 Ga
atom 8.2396494078884004 4.7938189515675242 10.8372612672269835 Ga
atom 8.0724093206576271 4.6781541534148827 5.5573269966432379 Ga
atom 9.9321195931506470 1.8213840585355039 0.0350163722839090 Ga
atom 9.9781886566964406 1.9245551900065281 10.8079809245714493 Ga
atom 9.8831824161147797 1.8005615857001831 5.3346293484017560 Ga
atom 16.4819363100646044 13.1797187448204198 16.0635026342012814 Ga
atom 0.0433262248281618 13.1853159947270431 10.6190681330934407 Ga
atom 16.4865903921261996 13.4301490905416241 5.4471999263307040 Ga
atom 1.7685196776591294 10.4683157985855271 16.0236101538669011 Ga
atom 1.5629448541331625 10.3862757925461580 10.7392935996671675 Ga
atom 1.4771284482673861 16.3205123025607257 15.9638902190391700 Ga
atom 1.7310223520842798 16.2235397591142672 10.5282893052908975 Ga
atom 1.5697800386485175 16.1744437353376611 5.3834691248682169 Ga
atom 3.3783078560500814 13.4295895236198461 15.9685118777404167 Ga
atom 3.4694015052842069 13.4610059301537532 10.5970372084965838 Ga
atom 3.3412339573872392 13.2058101435385247 5.4046697254497618 Ga
atom 4.9528213169566833 10.5892506339334869 0.0210156465305147 Ga
atom 4.8215882768248388 10.3635339454070685 10.6931700210439171 Ga
atom 4.8872364039402854 10.4065793082254174 5.3489873194239133 Ga
atom 6.4925318348352246 7.5240765572991046 0.1092080532355909 Ga
atom 6.6512230918399338 7.6773496123911622 10.8547320872309605 Ga
atom 0.1304736156983148 7.5322348220472826 10.5760773120132932 Ga
atom 16.4665782673847119 7.7529406849563500 5.2919547142323999 Ga
atom 1.7453372726940888 4.8475690689795066 16.0222862221698925 Ga
atom 1.6512481171675288 4.7627459563547312 10.6838520357821327 Ga
atom 1.6917070204973239 4.6538943217063551 5.3617729696179435 Ga
atom 3.3931538886962924 1.8127778107779389 0.0436364647649548 Ga
atom 3.4291560085027601 1.9259149316872277 10.6650719369685980 Ga
atom 3.1437917812979252 2.0632138100013120 5.2180855725440933 Ga
atom 0.0491641775387567 1.9917203759427422 15.9516835611635219 Ga
atom 0.0202319283998437 1.9101279119096382 10.6252875673249232 Ga
atom 16.4501884151669877 1.8035972722643532 5.2359261332216800 Ga
atom 1.5580080675137187 10.5192428316939885 5.4322071957491644 Ga
atom 3.4018571876203407 7.5071717594773082 0.1858016648316166 Ga
atom 3.3068416381960373 7.6864892597147918 10.8164992601637557 Ga
atom 3.2120897728082802 7.8191512457277437 5.4205455794492226 Ga
atom 4.9996014438271530 4.6885418798030729 0.0095691616472641 Ga
atom 4.8681745185861276 4.8511416837342765 10.9383534724661420 Ga
atom 4.9039896246083687 4.9784712995988585 5.6137767859520800 Ga
atom 6.8062001682558435 1.8078210533913319 0.0705327005585918 Ga
atom 6.6574413792414910 1.8890348008835045 10.7263977862792395 Ga
atom 6.5752255855353727 2.0602670035901403 5.2304888803518308 Ga
atom 0.0245117702162400 7.7023748815646389 0.1394277603552308 Ga
atom 14.7880655126097817 10.5112067098567632 5.4018903814144270 Ga
atom 8.2563838758381802 16.1019436729232339 15.9625792117088583 Ga
atom 8.3397945780762068 16.1789644183886310 10.6467656380944469 Ga
atom 8.1042809934992128 16.2460824510567434 5.2942030222986807 Ga
atom 9.8305029126423946 13.2657047508142263 15.9387252375667750 Ga
atom 9.8632957016519711 13.2709475758707391 10.5869485278817770 Ga
atom 9.9022822960064545 13.4898547224294436 5.4426146150680337 Ga
atom 11.4057027642984750 10.5379854070880370 0.0528238912593234 Ga
atom 11.5728679661387606 10.3394601455107207 10.8307276028931536 Ga
atom 11.4468855014026811 10.4179593880079153 5.2560684183077955 Ga
atom 13.1838342497736427 7.6587183985584435 16.0037250868243710 Ga
atom 13.2698417162047075 7.5557006413220815 10.7512139331609458 Ga
atom 14.8771735695548717 16.1085070523905891 0.0472864760579789 Ga
atom 14.9318169347187055 16.0773612721862520 10.5503427837812396 Ga
atom 14.7818819931790468 16.1494148505226995 5.3239388193578234 Ga
atom 11.5862163396061586 16.0888462302928055 0.0005845343621407 Ga
atom 11.4617411243727076 16.2214682118781255 10.8889251860747400 Ga
atom 11.3909011141739125 16.1596178960163783 5.3636359554234447 Ga
atom 13.1770624351674801 13.3509175969952789 0.0277539624671903 Ga
atom 13.0953312228196097 13.1674663116702817 10.6400817471290221 Ga
atom 13.2238960007097788 13.2920998554260965 5.5451907692216968 Ga
atom 14.8053546148875483 10.3905939823161688 0.1580242364161907 Ga
atom 14.9328939198647248 10.3243977797571045 10.7548348276388310 Ga
atom 8.3005059455050176 10.4747509922550925 10.6884685479320218 Ga
atom 8.1309330460119273 10.5906396563121223 5.1582174793469910 Ga
atom 9.9344370465364289 7.5548686982188817 16.0674224331584554 Ga
atom 9.9862307679173572 7.5157552474756955 10.9281196310636428 Ga
atom 9.8473162222100132 7.5191872819316794 5.3470090904811878 Ga
atom 11.4326201935770886 4.6863682418891770 0.0091081080034385 Ga
atom 11.5788302424904277 4.6098438090262510 10.7938703858050040 Ga
atom 11.3426848773438511 4.7515372853189053 5.4081546672106091 Ga
atom 13.1441918430802982 1.8400748792356838 16.0532857950928189 Ga
atom 13.2875420081191820 1.8573180801977356 10.6994555461363952 Ga
atom 13.2572447643370399 2.0816711658990266 5.2491642445764537 Ga
atom 13.3272334792779734 7.6057167409462769 5.5141824845793863 Ga
atom 14.8050684373386385 4.6854786309895946 16.0050185855480400 Ga
atom 14.8072998481671334 4.6172285105296424 10.8984982793941558 Ga
atom 14.9307946730767149 4.8169993311628874 5.2338857022784193 Ga
atom 4.9313038917684366 16.2236846988777508 16.0569775387156888 Ga
atom 4.8221688418043751 16.4332347136115011 10.7307290082245341 Ga
atom 8.1621753696453183 10.3828875441975086 15.9336798742468080 Ga
atom 6.5879686427460769 13.3938437787377804 5.3503548504358145 Ga
atom 6.5931575034624261 13.2470338100171094 10.7127259163947830 Ga
atom 6.5879967069163250 13.2360824191001978 15.9894681855956708 Ga
atom 4.8899313554790913 16.2954707728236450 5.3183489793641403 Ga
atom 3.1360763649037819 9.4729260404057527 10.1783416443154895 N
atom 3.3569802320707702 9.4845171100787269 15.4545474789315609 N
atom 1.5249060459405761 12.4345576806673002 4.8732448384681026 N
atom 1.7370911050869249 12.2754525020406842 10.2436498036273953 N
atom 1.6506207083706297 12.3337284760247865 15.3226989566521574 N
atom 16.4310492301705544 15.2299461693737417 4.6468711162939060 N
atom 3.1872224654640204 9.7355196196136848 4.5928761660981996 N
atom 4.9288318732173666 6.5675499569158760 15.6386855279683115 N
atom 4.9470364479662452 6.6750541910619869 10.1894168345989922 N
atom 4.9392900852783956 6.7626344424492588 4.8178705553833181 N
atom 6.6792101081335202 3.6691047410600164 15.4569589553761659 N
atom 6.5156517688405424 3.8131807396500390 10.1014508139148145 N
atom 8.2583497650632189 6.5433035260678682 15.5178148272761884 N
atom 8.2859895645481565 6.6027053127644084 10.0340381807371983 N
atom 8.2673014219072414 6.6045504242093394 4.7119874758524780 N
atom 9.8474157904394417 3.6503041360405755 15.4278418075926762 N
atom 9.8835739531381002 3.8010647337008789 10.1321412100648462 N
atom 9.8212214358721734 3.7875752121948651 4.8695583552622530 N
atom 11.4991544561268828 1.0693391043197558 15.3162843332101968 N
atom 11.6341389492660525 0.9949815831422050 10.2540208096171934 N
atom 11.6306119893001547 0.8721237677624614 4.7120470036790651 N
atom 0.0731456622998214 15.0803947314868072 15.5032520769444204 N
atom 16.4804606730383476 15.3279202585620915 10.0167791351181616 N
atom 3.3990112990188406 3.7254582569712991 10.2166637782970131 N
atom 3.4212958860831928 3.8882107614457544 4.5806159769966461 N
atom 5.1003879450507679 1.0049257250917740 15.4843690435355370 N
atom 5.0722352653245633 0.9485330238681747 9.8780290759133393 N
atom 4.8184737362944317 1.0467836192644115 4.7397004804744212 N
atom 0.0941627330311580 3.9230944187959502 15.5523827845012548 N
atom 0.0376331983231505 3.7985232281494694 10.1052338903908598 N
atom 16.4486491820291327 3.7655703620152399 4.6493612070706636 N
atom 1.6591863183950264 0.9073651892818866 15.2508400853162236 N
atom 1.7769144531062797 0.9769321471855642 10.0219332939211281 N
atom 1.6779336438903572 0.9676250729240806 4.5581719535207981 N
atom 6.4595395414810648 3.9914677767991797 4.7975883329853897 N
atom 8.2826941306631401 0.8136662459460876 15.3918781979644503 N
atom 8.3663979517516225 0.9797501693377788 10.1235504400244167 N
atom 8.3360579024480455 1.0705276967442927 4.6513490737841705 N
atom 0.1428380487783728 9.5229514350724447 15.4054234421222809 N
atom 16.4047826104188204 9.4170707692909268 10.0456273593391252 N
atom 16.4275710673424697 9.6098908610733336 4.6400104920593233 N
atom 1.8080783325827667 6.7542590318667761 15.4934093854480235 N
atom 1.7389843473766164 6.6608311407698455 10.0238388889253951 N
atom 1.5622425935781405 6.6616941694234582 4.9372382365902023 N
atom 3.3186428670905195 3.7251071386666004 15.3894251107437725 N
atom 11.4665252175923555 12.4615229625895516 4.8041374432845609 N
atom 13.1920896286571896 9.6378205604681515 15.4658448640644721 N
atom 13.1638369173048613 9.4246915700745273 10.0545713571007358 N
atom 13.1641495193542486 9.5260451920783513 4.7119215212496188 N
atom 14.9607089685523125 6.6149433924219707 15.4645933266363009 N
atom 14.8564397624682769 6.5221388269906839 10.1281993709926184 N
atom 14.9026859099621234 6.7041655518005268 4.5796839332409034 N
atom 6.6756834345442222 15.1572625268022705 15.4234756086751528 N
atom 6.5686528739299881 15.2916421216967766 10.1348542915618314 N
atom 6.4629219858456084 15.3614407242996602 4.6685741362891839 N
atom 8.1880387758839710 12.3434645035898445 15.2531139199931562 N
atom 8.2301790801597967 12.2556326189930100 9.9135993791620081 N
atom 13.2053470912974760 15.3306340666174759 15.5153908570039931 N
atom 13.0926357244135172 15.2182276199145203 10.1212799893144769 N
atom 13.0362500400059993 15.2119858019107976 4.6253287558727871 N
atom 14.7116809143722325 12.2634021290448061 15.4240541650606282 N
atom 14.9750439858950344 12.2211917902436191 10.0231824735885411 N
atom 14.7844979061160036 12.5034245124188068 4.5590858289119707 N
atom 9.9929779398282399 15.1445456952498265 15.4321749594787221 N
atom 9.9092552179833149 15.2340716708823809 9.9059242977727227 N
atom 9.7552656839544358 15.2812711668117700 4.6909831121002519 N
atom 11.4995250134774682 12.3587212376187541 15.3301414589913900 N
atom 11.5548492789252499 12.3531013173936959 9.8600176835472784 N
atom 14.9319636025414706 0.8917524664447867 9.9856487929665168 N
atom 14.8444778296306819 0.9043317040615659 4.5290586745116626 N
atom 3.1921927939817327 15.3949619952957235 15.4011181506499799 N
atom 3.4372403962773803 15.1773252932806972 9.9379566790294174 N
atom 3.3065501712783250 15.2390733382900017 4.8465175262922333 N
atom 4.9872215483084341 12.4215288271795146 15.1663792514843596 N
atom 5.0133117996673784 12.2802038689180826 10.0437637296444251 N
atom 5.0029480638927124 12.2665171423492740 4.5701005960073582 N
atom 6.3921540113806383 9.3875698680087503 15.4208129050633040 N
atom 6.6462782303558008 9.6243872948582876 10.0091773639483090 N
atom 6.5296462574712377 9.5269752302413018 4.5670531071014997 N
atom 8.3111410066562268 12.6088413032635245 4.6865616538407586 N
atom 9.8168349458666260 9.4471628212882823 15.4191320211700660 N
atom 9.8659744491684780 9.5127554979808941 9.9662115062759966 N
atom 9.8447270957426998 9.5188352708262034 4.6910528250072598 N
atom 11.4702350186874167 6.6041125910225471 15.5091432464096162 N
atom 11.6552000870221413 6.5645144676159664 10.0505926365965585 N
atom 11.6298345183905614 6.6211387524962335 4.6347847062483707 N
atom 13.2000739651693966 3.8665889936140561 15.5057261538983031 N
atom 13.2017679784814224 3.7734386323879594 10.1367110577933062 N
atom 13.1163469981074243 3.9138508426455823 4.5471694102985225 N
atom 14.8589930438070468 1.0146396555426065 15.4113303169051452 N
atom 6.5115398618637910 7.6895093966097861 2.1264723265734076 N
atom 8.3008037828068986 4.8406865990487500 12.7734512148339157 N
atom 8.2664851664036778 4.7904086329975133 7.3664730446248194 N
atom 8.2646795549928029 4.8992872762113784 2.2672592499014135 N
atom 9.7756944808614357 1.9783812325956214 12.7794962789783035 N
atom 9.8562755448353947 1.9142237637414463 7.3581221176491569 N
atom 9.7517848924060075 1.9817036233883447 2.1609866882366493 N
atom 16.3890349147168664 13.2772613134880562 12.6485756724915408 N
atom 0.1328214640108113 13.3436852433522812 7.4137187131833695 N
atom 0.0287611496070555 13.4037811114124779 1.9437901216001658 N
atom 1.5096043192863504 10.5126609998378520 12.7582498164791094 N
atom 1.6797292184357338 10.4353045188068219 7.5325869685978573 N
atom 1.5394768096732450 16.1849800724736390 12.5885206377743728 N
atom 1.6521729568954959 16.2562749610891153 7.4172100191612715 N
atom 1.5078995512590292 16.2187813067093671 2.0064042264591673 N
atom 3.2496011934341098 13.3637328841869749 12.7276009849340337 N
atom 3.3671668433429933 13.3435340061505379 7.4051309282946161 N
atom 3.3096750928661844 13.5540294335421603 2.0804852620521292 N
atom 4.8023351249653397 10.4801079022831871 12.7669472491098883 N
atom 5.0050203771516992 10.5745058796046045 7.2961657476245261 N
atom 4.8200679180955008 10.7657376778414289 1.9919465011807260 N
atom 6.5997841094964000 7.4898573378832713 12.8450667784375518 N
atom 6.6635928820706036 7.7162311730673956 7.3959411897883891 N
atom 0.1278920292875782 7.4719200135191297 7.2342547867509968 N
atom 16.4832218447860619 7.6326529577526872 2.0805652717629139 N
atom 1.5090122334679203 4.6804345112184293 12.6945633254642480 N
atom 1.8178024515021500 4.6405031951214264 7.2596322116239049 N
atom 1.7000466323889571 4.7836918001229254 1.9781704264556856 N
atom 3.4383001390184988 1.7942439061810207 12.7181015139857951 N
atom 3.3345645074435302 2.0530497322122874 7.1764137077041559 N
atom 3.2078237118981878 1.9523588447518647 2.1300781971301408 N
atom 0.0824690357484293 1.8670556009793975 12.7466865853211768 N
atom 0.0873966817487234 1.9316351093349067 7.2862914596085728 N
atom 0.0502804652135443 2.1002260910052377 1.9820641905697409 N
atom 1.7934329992750633 10.6308031211639662 1.9419047161591989 N
atom 3.2947189031835942 7.6422017874648622 12.8389827027992869 N
atom 3.3899059382417813 7.6638145248334180 7.3346462694787267 N
atom 3.3193319882248105 7.6155110621279993 2.0745806008894760 N
atom 4.7117798938576909 4.7704693446270765 12.9381870424089662 N
atom 4.7846068688632615 4.8656141298370068 7.4081074023500211 N
atom 4.9215212215139177 4.7460873908196461 1.9305596121719484 N
atom 6.6897625496522464 1.8599812051719797 12.8054328239800537 N
atom 6.8162774145655050 1.9311085560777783 7.1773691680324845 N
atom 6.6713000523581831 2.0639817452765934 2.1868753486343584 N
atom 16.4741907202517233 7.5432305811110556 12.6677174765845066 N
atom 14.7944150678870905 10.4408526764667950 2.1322746043836771 N
atom 8.1725255698344750 16.0562951831578182 12.6572226948595610 N
atom 8.0913876039767167 16.1614664598730577 7.2997614751884026 N
atom 8.1808336914428477 16.2735499528975538 1.9229586063348849 N
atom 9.9015465788134165 13.3137682606424335 12.5633454954227393 N
atom 9.9400486183943517 13.4318169725159642 7.4288769072415075 N
atom 9.8625367138985318 13.3880226564369362 1.9518979555362082 N
atom 11.5393636508764175 10.3648112617959445 12.7999329814213461 N
atom 11.6382495686416938 10.3628838786338555 7.2503303155726337 N
atom 11.5896357586006218 10.5235475638368907 1.9950898353980724 N
atom 13.1175953237373140 7.4911282919525233 12.8328129882933393 N
atom 13.3021264846970304 7.4930062542535545 7.4703220736578331 N
atom 14.7546174417425533 16.1235261827571357 12.7187115128745081 N
atom 14.7546371317275629 16.2270004862031918 7.4005025369857913 N
atom 14.9425349249961741 16.3373994907066269 1.9520701706759520 N
atom 11.6794626306831617 16.0234349795149704 12.8816114267649127 N
atom 11.4057567340544939 16.2001536061822016 7.3284416957877916 N
atom 11.4015114254513001 16.2588607685494146 2.0569701090802974 N
atom 13.2328976831686855 13.1011958373966717 12.6733472845889494 N
atom 13.2925183540687826 13.3398267455065866 7.3644252661058287 N
atom 13.2763908605691139 13.2610908361621505 2.0264101638992864 N
atom 14.7557103949883412 10.2555828782452156 12.6315396725223881 N
atom 14.9517504404867179 10.3187957706184790 7.4787557777584697 N
atom 8.2344964490605204 10.5156943189510717 7.1504424064418615 N
atom 8.2664648053534329 10.5659945418393537 1.9163054408932236 N
atom 9.8904624713847191 7.5465060908945754 12.8503501681432137 N
atom 9.8344588582024421 7.5818561735589700 7.3128902794589568 N
atom 9.9939163366741770 7.6702879301122779 1.9202634020243814 N
atom 11.5815733689940963 4.6550557811423818 12.8899344160001981 N
atom 11.4880370630865389 4.7495611600623118 7.4734181033087212 N
atom 11.4267009447278873 4.6747597645604770 1.8503910964251908 N
atom 13.4083211755999265 1.7841421457143758 12.7826620098821131 N
atom 13.1536177027475247 2.0331008260238046 7.2999075100789481 N
atom 13.0226037826620580 1.8521687287887332 1.8916423685321697 N
atom 13.0672964571530841 7.5861871136249528 1.9652491214767835 N
atom 14.8494628977785119 4.7797749747403309 12.7931736412127162 N
atom 14.7600057363675283 4.7297361731417285 7.4421200960593668 N
atom 14.9158098472448053 4.8126955722644666 1.9236988539196511 N
atom 4.7558814425604838 16.3852718973225571 12.7600424863339157 N
atom 4.9546012468853808 16.1719675993846685 7.2041958790209177 N
atom 5.0069223054226866 16.1684047168339475 2.0637744054150011 N
atom 6.5292679845411357 13.2784766204881670 12.5302392724311407 N
atom 6.6353186956536181 13.5120661755545868 7.2871313517934588 N
atom 6.4509856895665187 13.2782555483477349 2.0737344265451290 N
atom 8.4051429624808698 10.3441920207896825 12.7281072952926291 N
