#===============================================================================
# Created using the Atomic Simulation Environment (ASE)

# Thu May 11 09:00:35 2023

#=======================================================
lattice_vector 16.4884741999999989 0.0000000000000000 0.0000000000000000 
lattice_vector 0.0000000000000000 17.1353250322131494 0.0000000000000000 
lattice_vector 0.0000000000000000 0.0000000000000000 16.0845834599999904 
atom 0.0110670905587531 15.1996402597179099 2.5329230609553566 Ga
atom 1.6072106196341529 12.4242492575486398 13.3984656884764082 Ga
atom 1.5318233857660579 12.4860124144043159 8.0504802387076762 Ga
atom 1.4259621049732458 12.2586111992888274 2.6352989362505790 Ga
atom 3.1931324248311808 9.4070736760486735 13.5099109046780761 Ga
atom 3.3630689517063321 9.5083974935151669 7.9698067736878180 Ga
atom 3.2402030250682614 9.4420946039561642 2.5456766991446114 Ga
atom 4.9529316350285706 6.7333580557708395 13.2070748332175221 Ga
atom 5.0560729034125522 6.4502186918646469 7.9866255751911570 Ga
atom 4.8559888417257264 6.6876719494232031 2.6204426334842994 Ga
atom 6.7006219389326036 3.7827167802384030 13.3089783559592405 Ga
atom 6.6990390684992027 3.5952606803717044 8.0182016111685463 Ga
atom 8.2253728137485513 6.4891183392335510 13.3576579100918043 Ga
atom 8.4469140828069751 6.6831972714330474 7.8747781359256637 Ga
atom 8.2799433242143508 6.7035047732623596 2.6124851571384378 Ga
atom 9.8772681096771464 3.9461839399933134 13.4236129046442727 Ga
atom 9.7940797398488595 3.7663618017157976 7.9595463732131373 Ga
atom 9.8597769598613230 3.7767755327027297 2.5620593615545562 Ga
atom 11.4242164744074071 0.8567187145131613 13.5043492458006043 Ga
atom 11.6656636605468353 0.8992689932295468 7.9369488789166276 Ga
atom 11.6192956025888261 0.9274306690867699 2.7777060813042760 Ga
atom 0.1906226363345835 15.2350703347987970 13.3454867379464943 Ga
atom 0.0531015632783357 15.1493626877556729 8.1419031817307825 Ga
atom 3.3436873717722535 3.6405770375763575 7.9031988111366562 Ga
atom 3.4875078364065497 3.7756450686937022 2.6711582910230498 Ga
atom 5.0505808597320554 0.9461728324094941 13.4303997356339124 Ga
atom 4.9897769574739161 0.8899164085427389 8.1821387019393761 Ga
atom 5.0691782268515988 0.9327663871172944 2.8122075110489511 Ga
atom 0.1197842390666943 3.8940846256139117 13.2879988484696501 Ga
atom 0.0444935642039915 3.8921127222183296 8.0874872114463656 Ga
atom 0.0881037047904441 3.8939830644382627 2.7489427370301649 Ga
atom 1.6073204182523249 1.0273959973815461 13.4847369887080539 Ga
atom 1.8012765566009643 0.8373280210237277 7.9188079165988432 Ga
atom 1.7654632868423845 0.9118539459647242 2.5941890584085625 Ga
atom 6.6951949123565750 3.8187307914171429 2.5886731948492359 Ga
atom 8.2651460157236798 0.9606523453413134 13.3981485557945224 Ga
atom 8.2441293409122665 0.7794981718088595 8.1326521523350888 Ga
atom 8.2715324586360683 0.9155002671343565 2.6977196768815146 Ga
atom 16.3676645681186841 9.5822716751195678 13.2537870374505395 Ga
atom 16.4502068399114059 9.5345737310306582 8.0314096698989115 Ga
atom 0.0808256290472442 9.5031139038170149 2.5946790403764766 Ga
atom 1.6686074105656945 6.6050248741653768 13.5202923422715564 Ga
atom 1.7152456603954733 6.7068681623029507 8.0710621027123999 Ga
atom 1.5015854669566124 6.7957662086968647 2.6454497862389887 Ga
atom 3.2668014031259460 3.8191685998139171 13.4248408929884668 Ga
atom 11.3952463137420370 12.4666650050990704 2.7521328755387091 Ga
atom 13.1110467781101327 9.8445013978992524 13.4673755064527523 Ga
atom 13.2185313201416736 9.5035405842758269 7.9058906189386944 Ga
atom 13.3057188795907759 9.3509582582039155 2.8470135956892357 Ga
atom 14.7317583127102552 6.7649112833255289 13.2553173093447061 Ga
atom 14.7564760679905120 6.6641859958106089 8.1060851158881437 Ga
atom 14.8332001527959676 6.6202229700981299 2.6489394725479118 Ga
atom 6.4804762723810603 15.3234343070741836 13.4682050789437291 Ga
atom 6.6159751351704816 15.2106843000228213 8.0082261123404468 Ga
atom 6.6023195219957032 15.3163015779468683 2.7907430166617346 Ga
atom 8.2389955594290480 12.2592572583015986 13.4657393992979273 Ga
atom 8.2053973232571646 12.4743234298827748 8.2291007977704052 Ga
atom 13.2396169719270453 15.2547380959110530 13.5311354901402670 Ga
atom 13.1237569909242691 15.2216921073241380 7.9582230108508734 Ga
atom 13.2687605347617907 15.3518875368424901 2.8273516716501397 Ga
atom 14.7324648825110263 12.5824807890645314 13.4239182623066995 Ga
atom 14.7985142659078708 12.3223079621126264 8.0431065250715328 Ga
atom 14.6836342851911379 12.3458550894279533 2.6608024852481948 Ga
atom 9.8942414076720251 15.2963065054853491 13.5537135253796048 Ga
atom 9.9264104948625498 15.1321390128229254 7.9083889891101879 Ga
atom 9.8137685753098545 15.2853411617215222 2.6484986075552293 Ga
atom 11.4962923956453871 12.5633900696452478 13.3412833824223078 Ga
atom 11.5833685419801622 12.3904308393298983 8.0858888543572665 Ga
atom 15.0224039990774632 0.9823264927885863 8.0753006246919679 Ga
atom 14.8516583643388742 0.9010351506585123 2.7800076389890207 Ga
atom 3.2483838119488215 15.3450740565346795 13.4597882445816630 Ga
atom 3.1668203568767130 15.2440232177900103 8.0395257788344150 Ga
atom 3.2074311297090716 15.2104253913821506 2.5075321621327209 Ga
atom 4.8386731650834101 12.3440787189773733 13.6244114862256520 Ga
atom 4.8607142342459317 12.5101309710999988 8.0664016791642315 Ga
atom 4.8611166732604234 12.5162042046815181 2.6934537482129084 Ga
atom 6.5929441066844889 9.4152640540173067 13.2722568449582230 Ga
atom 6.6533753816825794 9.5411634708163344 8.0815283232199100 Ga
atom 6.6803818752928832 9.5467944492039720 2.7854773993616244 Ga
atom 8.2273694789011245 12.5026426796049872 2.8099768551852362 Ga
atom 9.8738353608438185 9.5443329171257769 13.3541172020939545 Ga
atom 9.8662619600367503 9.5072788556589067 8.0879334887969936 Ga
atom 9.9519313913044432 9.5808184972299895 2.7472344063832832 Ga
atom 11.6798308290597301 6.8154927234312979 13.2240169020744425 Ga
atom 11.6404186861216736 6.6908432259824160 7.9891653974972803 Ga
atom 11.6029536502984882 6.6647492990242121 2.6799990580036104 Ga
atom 13.2000999416994649 3.7795442837381215 13.3398190802244514 Ga
atom 13.2142101134150227 3.9036850131410676 8.0562386184478338 Ga
atom 13.3006402152592305 3.9061960597490293 2.6058091200082751 Ga
atom 14.7927154552694446 0.9181993318119769 13.4108560314547525 Ga
atom 6.5461787217390048 7.5844861752682835 5.4884536351806608 Ga
atom 8.2377958927666963 4.8089059074723108 0.1343756954154413 Ga
atom 8.3234778879969813 4.7676587396267616 10.6513391227030851 Ga
atom 8.3015291288790980 4.6140288707159600 5.2997146645613773 Ga
atom 10.0028368267026941 2.0532227048952758 0.0695747420528617 Ga
atom 9.7731617083223377 1.8937846400392402 10.7716690494900753 Ga
atom 9.8510171660098500 1.8835323317114403 5.4296964413293605 Ga
atom 16.3818749444541396 13.4616655625024908 15.8964014041653403 Ga
atom 16.3981333770932487 13.3144401137752677 10.7302030868031792 Ga
atom 16.3836101773879008 13.3315143540403387 5.2898623561811577 Ga
atom 1.6505112197219225 10.5346827281779500 16.0844654733367598 Ga
atom 1.4428724825312755 10.4440025571980915 10.5893938965354835 Ga
atom 1.6946877535660207 16.3749616055612286 0.0827936884575548 Ga
atom 1.7303839699339270 16.0130643253722234 10.7112842630135816 Ga
atom 1.4958970038996622 16.2021214039821793 5.3702574734019723 Ga
atom 3.2495161017320093 13.4587165867721925 16.0736696438125577 Ga
atom 3.0374775711903026 13.3005039197602724 10.7808483928398022 Ga
atom 3.2821225570990058 13.3852400189170027 5.3169996975072573 Ga
atom 5.1440538442085133 10.4599840535537698 0.1575872477812609 Ga
atom 4.8383309548466107 10.4188696751254444 10.8012257098903941 Ga
atom 4.8329962001638584 10.3412083053399098 5.3560155563082397 Ga
atom 6.5766939604219123 7.6941271278227443 16.0413294706678577 Ga
atom 6.4782400156396278 7.4785480900562948 10.4879923557362620 Ga
atom 16.4545608487022790 7.6936300055629712 10.6412456478764774 Ga
atom 16.4023578131481678 7.5921208091405257 5.5530946139703161 Ga
atom 1.7337586655382076 4.5297039106882853 0.1328411935170941 Ga
atom 1.5873920018977186 4.7384694822575231 10.7376365455396812 Ga
atom 1.7260693433144501 4.6985471812623558 5.3607322013155914 Ga
atom 3.6267502217154779 1.8651633061913013 0.0964800050810746 Ga
atom 3.2762534927181113 1.8763822376058115 10.8407823410391977 Ga
atom 3.4733192413486442 1.6974803238368263 5.1525151895465582 Ga
atom 0.1243845059901371 1.9728929384347578 0.0160859075215179 Ga
atom 0.0897912529996006 1.7679440427026467 10.6218195077920008 Ga
atom 0.1038904458006375 1.9981637073352954 5.4820694308146356 Ga
atom 1.6785098695143761 10.4140272586133040 5.3070547152844485 Ga
atom 3.4047293252877568 7.6586016068119251 16.0398063740101868 Ga
atom 3.0596086269904030 7.5584488449685550 10.6638205486290758 Ga
atom 3.2870174619420167 7.5824751711631402 5.4501812403739907 Ga
atom 5.0322134864048129 4.8149990543985384 0.0137176451483435 Ga
atom 4.9261757515952249 4.5228855615182058 10.7778814502127602 Ga
atom 5.0863436909146609 4.7441393034605381 5.1560618297388796 Ga
atom 6.7835905482921168 1.8111163223518403 16.0222211270488444 Ga
atom 6.5200756282602050 1.7865448579361924 10.6817184016116240 Ga
atom 6.5717233332586895 1.7704881895888434 5.1014259335797147 Ga
atom 16.3865508092665344 7.5377560039454643 15.9517795659238963 Ga
atom 14.8991497531249948 10.6815474665563528 5.2775131169072464 Ga
atom 8.2140744116544688 16.1168108983395015 0.1708870368663280 Ga
atom 8.1978889697109931 15.9007592881765571 10.7916049750472922 Ga
atom 8.2646009530327920 16.0846657223950622 5.4122216381790240 Ga
atom 9.8649489542080904 13.3298259583968317 0.0819194026982522 Ga
atom 9.7396468294647427 13.3804599220180638 10.7977822462874258 Ga
atom 9.7455091141027808 13.1729517554256876 5.2875238469826451 Ga
atom 11.6669846688066485 10.5235318762854071 0.0094155423821428 Ga
atom 11.5109320457549380 10.5797191331326790 10.6624822715302248 Ga
atom 11.5620868612846959 10.3835732709548214 5.2975932054952022 Ga
atom 13.2749583372602586 7.7813547177975018 0.0147788658615032 Ga
atom 13.2239464551095782 7.9007340705471210 10.6341192772740563 Ga
atom 14.8290724512581686 16.1627346215202223 16.0579389963525827 Ga
atom 14.7353726015692246 16.1880650531118562 10.8019843416848680 Ga
atom 14.9214490899143701 16.2088987629962062 5.4948882376691257 Ga
atom 11.4786845130910731 16.2788764294129074 0.2039685345395652 Ga
atom 11.5220001208772551 16.1271338872094319 10.7192731431848873 Ga
atom 11.5409606524355990 16.1695073745491129 5.3093278746696067 Ga
atom 13.1196399780441553 13.3114400319168134 0.1065347568943512 Ga
atom 13.1029948680638633 13.4734344782698088 10.7099031310950465 Ga
atom 13.0272131059027103 13.4142705690517854 5.4837001826196206 Ga
atom 14.9343415923175478 10.4469827175828414 0.0425750538450010 Ga
atom 14.7651568213429716 10.7383079361204867 10.6921579324809883 Ga
atom 8.2831416211462425 10.3475838789531238 10.6451858393658956 Ga
atom 8.2306285139906272 10.3646988252918089 5.5010632942191000 Ga
atom 9.9371988626995531 7.6619603055694636 16.0562806637366684 Ga
atom 9.9368382264248165 7.4642795629915790 10.6958025618209174 Ga
atom 9.8203592269288524 7.6421430840387359 5.2862246062729064 Ga
atom 11.5549813704380462 4.8565134572928645 15.9559513260681207 Ga
atom 11.5866547255858023 4.7940147631404502 10.6889672917501439 Ga
atom 11.6742903561525360 4.7503900738616061 5.3261133603109778 Ga
atom 13.2325606678637744 1.9156675610661213 16.0697116757129166 Ga
atom 12.9180082141709285 1.8291589556413324 10.7237164444317674 Ga
atom 13.1779363138280861 1.9759089467796660 5.3467774178411593 Ga
atom 13.2653581172380264 7.5548254867426161 5.3393675511957577 Ga
atom 14.7633086206703563 4.7931658351055386 0.0312790023601813 Ga
atom 14.8396833358185329 4.7037523605325724 10.6282779420949112 Ga
atom 14.9589680332642576 4.7605580971318728 5.3742708758789179 Ga
atom 5.0172712593971358 16.2701179989010036 15.9457614146639521 Ga
atom 4.9749900203568522 16.3025201607895482 10.8111320025434203 Ga
atom 8.4720447951691611 10.5347505673051867 0.1720175145208844 Ga
atom 6.5815853144794234 13.0900615680286663 5.3551655163310192 Ga
atom 6.5190522135843221 13.2923424933986318 11.0438122228623001 Ga
atom 6.5546505564503876 13.1948981345155172 0.1210035752602800 Ga
atom 4.9729821367511402 16.0773087458331787 5.3822348825196613 Ga
atom 3.1653440541037439 9.4533798956566457 10.0718374355560716 N
atom 3.3366696432439404 9.6296109543507065 15.5187303318810930 N
atom 1.6640344509348137 12.4222717310462141 4.6763910652657055 N
atom 1.5675067645420084 12.2768486736518430 9.9639999354647699 N
atom 1.6592058992926206 12.4371522553342313 15.3654956018341764 N
atom 16.3813440265642463 15.2550615953926254 4.5171383593662124 N
atom 3.2708285999208053 9.3612289063381553 4.6091542241292425 N
atom 4.9114119979474298 6.7332987777292379 15.2399895096150164 N
atom 4.7978026431184668 6.4790139847696544 10.0180594118020938 N
atom 4.9446467928134741 6.6176607939870289 4.7634199865793851 N
atom 6.5464314094727794 3.9195202466906527 15.3720356197764758 N
atom 6.8232782428272296 3.8077600038580535 10.1356602605707682 N
atom 8.1123092170374331 6.6551983125244885 15.3011473303044614 N
atom 8.3525850834639037 6.6591058823073599 9.8703548360826474 N
atom 8.3126681712732076 6.6270909103068618 4.6670362233752032 N
atom 9.8300768125670110 3.8909113721464239 15.3852831018101242 N
atom 9.9248540653785291 3.8475405533643903 9.9333614932262311 N
atom 9.9029338480846789 3.7745982791595143 4.6174993676540668 N
atom 11.6308378451083652 0.9477086880353607 15.5599510771927179 N
atom 11.4173680253519976 0.8522234084380157 10.0301481425704164 N
atom 11.4022541137601792 0.9877243080447518 4.6633437910087014 N
atom 16.4586157521708820 15.2964724186839636 15.4787366972530567 N
atom 16.4518220996141409 15.2947276548740003 10.0304364121431586 N
atom 3.1617149276531662 3.6770592466549283 10.0063289795575709 N
atom 3.4012924230908790 3.8139559865820485 4.6911363127640886 N
atom 5.0867317533528107 0.9774787303848916 15.4149879213332142 N
atom 4.8898424704770340 0.9523168408134181 10.0681912111815084 N
atom 4.9019690086279422 0.8064639818805555 4.6712884024832961 N
atom 0.0070122003002187 3.8763664377136320 15.4009998550425937 N
atom 0.0238399721257117 3.7085007234887777 10.0976258715263025 N
atom 0.0189753802786810 3.8603965001808005 4.6817094958154817 N
atom 1.7599780744724489 1.1189704496495838 15.4493736524022616 N
atom 1.7591544102993963 0.8058501394757622 10.0468697628647483 N
atom 1.6056426894390483 0.8471347253184804 4.6216582314806960 N
atom 6.6654859021352344 3.7422742001921221 4.6366804752936757 N
atom 8.4763404603983048 0.9526626527065224 15.4455168810087482 N
atom 8.2258465102727083 0.8353904394292120 10.1534913774409201 N
atom 8.2677661046358217 0.8514058205215596 4.7722521559878617 N
atom 16.4601498384521321 9.6470746791046285 15.3395671996489416 N
atom 16.2927337880034706 9.6669665844772599 10.0511571672984399 N
atom 16.4324658521673612 9.4249091741226732 4.8060573831368796 N
atom 1.6972417376213007 6.5859994344020452 15.6287949987481607 N
atom 1.4357539883330501 6.7033202125378830 10.0840072377954222 N
atom 1.4581322182809267 6.5689899421461613 4.6598506154218695 N
atom 3.3031338101124579 3.7749330023716858 15.4266250789233599 N
atom 11.4634676453884694 12.3736854797218161 4.7582037446726417 N
atom 13.2942000954233208 9.6769956786237383 15.4615870158382975 N
atom 13.1995713730631365 9.6836002016506324 9.8855584286977773 N
atom 13.2985544213243223 9.3629976651202256 4.7684375706635347 N
atom 14.7159058896362041 6.7517506004154502 15.3313057060757938 N
atom 14.6978947348279601 6.6839521328419034 10.0312713614198969 N
atom 14.9134414170044423 6.5664472825448339 4.7178150643946459 N
atom 6.5143615610114578 15.0972154152874865 15.5843431893596787 N
atom 6.5797781481350253 15.1755626360062674 10.0572163809415240 N
atom 6.6121421523518729 15.1994096468008806 4.7744132481829640 N
atom 8.3230727103760298 12.4428554556795312 15.4467714507696634 N
atom 8.1178631569768314 12.3365441718866453 10.1878397313127120 N
atom 13.0139833931999487 15.3601430689845770 15.4914167965173117 N
atom 13.0478152190413219 15.3487782399518498 10.0154386788061167 N
atom 13.2348399952867002 15.2097160513854490 4.8693754938652329 N
atom 14.6716033614835926 12.4530954811630270 15.4467137565724020 N
atom 14.7776886810204626 12.4505222862951133 10.0475068529387297 N
atom 14.7547855362661462 12.4983928051873381 4.6457177771282074 N
atom 9.9770471866381705 15.1647910585960908 15.6006724397875836 N
atom 9.7781104751449490 15.1444901135865653 9.9998998642481922 N
atom 9.9691484360817846 15.1774856327066114 4.7209827603695507 N
atom 11.4628895230650905 12.4049989049362086 15.4769552247062787 N
atom 11.4282860253527101 12.5118880833878752 10.2543045755372866 N
atom 14.6925430006407840 1.0903945804382960 10.0323438350868290 N
atom 14.9258020367921027 0.9694946865335431 4.7804215021846890 N
atom 3.3746327803713974 15.3239394629034713 15.3701026233643834 N
atom 3.3067268931813638 15.1975506263513083 10.0826757765457291 N
atom 3.2982165475149361 15.2615400863754669 4.5575618862629534 N
atom 4.8571836845231999 12.3551247243363402 15.6695127657204480 N
atom 4.7965509304301674 12.4499500222283999 10.2102891275430459 N
atom 4.8898984485105776 12.3538962988113763 4.7882918233991019 N
atom 6.7774804499515309 9.6546316027714809 15.4458500688240239 N
atom 6.5198050151448532 9.5008841890267366 10.1508147984187573 N
atom 6.3945643563277201 9.4502259278376091 4.7415006222769094 N
atom 8.2209372746825746 12.2962939016679105 4.7461684448652015 N
atom 9.9593532365557635 9.5278805363249557 15.4797325893087550 N
atom 10.0406505779495205 9.4141302204677597 9.9581363671251673 N
atom 9.7779470001066500 9.5063099321832532 4.6839257861447612 N
atom 11.6430794726588136 6.6865943693696606 15.2246089302579595 N
atom 11.4561454572335197 6.7338080388117652 10.0587850402245635 N
atom 11.4677876705871675 6.7274249565116300 4.7233845318398915 N
atom 13.1210793860080734 3.8112553642356981 15.3516286755551139 N
atom 13.1514517975304894 3.6440473265034230 10.0519830523722806 N
atom 13.2434746299985786 3.8225021744773882 4.6091531411979885 N
atom 14.8863561170815846 0.9530009877897228 15.4372978484718679 N
atom 6.5203198747095552 7.6419922747153111 2.0396138024563144 N
atom 8.3224581076147857 4.7619763451110071 12.5999188665180384 N
atom 8.3359860601197369 4.8000107607512668 7.2216336605155131 N
atom 8.1965118331462996 4.7734333042976251 2.0259372864770335 N
atom 9.8428280292526811 1.9895206738958175 12.7374320117081048 N
atom 9.8660526911165061 1.8824290107027524 7.3931071572135441 N
atom 9.7772675999658514 1.8143681436684667 2.0638635360649631 N
atom 16.4588848158244119 13.3324048775606503 12.6402719419553335 N
atom 16.4184218233521904 13.4424666265164703 7.3533724629035611 N
atom 16.2666793589264778 13.1064188342060977 1.9541621304875458 N
atom 1.7697600331325680 10.5372341356882764 12.6998013195203718 N
atom 1.6364451230102186 10.6132373809830991 7.4247525156937355 N
atom 1.5297574211994978 16.1207335300005923 12.7085964077393996 N
atom 1.5214142354030513 16.0871044185204823 7.3136782486607510 N
atom 1.5907484807507823 16.1119050308433565 2.0515011249903852 N
atom 3.2669140062149418 13.3986200954291146 12.8201650080203091 N
atom 3.2248736680486187 13.4877317870872648 7.4194214543053114 N
atom 3.0756891886191462 13.3941368514844914 1.9319500955309090 N
atom 5.0386289953695176 10.4068200718358597 12.8893599709973525 N
atom 4.9638371248065836 10.5283812418173337 7.4944441329094600 N
atom 5.0225759657046272 10.5299605510326977 2.1720838501732671 N
atom 6.6660532517210864 7.5185585511815285 12.6741319740029539 N
atom 6.5440301239122354 7.6143079388306294 7.4351190629068720 N
atom 16.4809606240589019 7.5966138025288794 7.3480791457775450 N
atom 16.4030827771499403 7.4843217355345200 1.8365965973293290 N
atom 1.6485647903478082 4.6679439977419692 12.7048163976325288 N
atom 1.7854684702651800 4.7116496228383875 7.4525812159117519 N
atom 1.8610577880307262 4.7974245474181751 2.1098098142666690 N
atom 3.4147660825763495 1.9284115849086652 12.8679432483610423 N
atom 3.4154770865876962 1.7381616658595143 7.1136678960335180 N
atom 3.4710724512582547 1.8034315051450707 2.0508261574747708 N
atom 0.0225650728877665 1.9808996481618664 12.6654878218170630 N
atom 0.1461417018131108 1.9259084068949062 7.3482546863597209 N
atom 0.0396599109909466 2.0032206821117766 2.0790946382076823 N
atom 1.6646181034126364 10.4330749732359322 1.9284125768083955 N
atom 3.2249553153524824 7.6305620830131797 12.8124513902191239 N
atom 3.3574688483522288 7.5592990947168870 7.3794460985871666 N
atom 3.3165314493807840 7.6953253370384074 2.0737162161941662 N
atom 4.9787503327163387 4.8167593154757986 12.5925845784926747 N
atom 5.0831943338581720 4.7201284628825988 7.1817131459108943 N
atom 5.0251115769703443 4.7539347324615866 1.9811417394237736 N
atom 6.6731357946721008 1.8015275802892170 12.5813420048811935 N
atom 6.6764941026300253 1.8145461353411052 7.2816771341161450 N
atom 6.7312482829770861 1.8810256390079347 1.9714984626040963 N
atom 0.0280485308230396 7.6594596465744296 12.7148971170600280 N
atom 14.8208683911159014 10.4260599631090862 2.1300426948941222 N
atom 8.3225550127610681 16.1017801491091248 12.7592552917386399 N
atom 8.1828689865502575 16.1056451897938970 7.3983968214056786 N
atom 8.3084993502290505 16.2225573211314789 2.1326884591254980 N
atom 9.7479787807560268 13.4155148667964852 12.7834128378473331 N
atom 9.9581504936059666 13.2682696257558117 7.2689509721968717 N
atom 9.7597205281914743 13.3679435729168734 2.1187561567185429 N
atom 11.5547416675383019 10.6467129816255657 12.7130685530622127 N
atom 11.5037636792963465 10.6212281852131571 7.3130584606224849 N
atom 11.5110362657280447 10.4703009818439572 2.1187052854877058 N
atom 13.1964412613781370 7.8537884289905442 12.5121890016029322 N
atom 13.2142384873736933 7.6022542364304755 7.4124088050369785 N
atom 14.8961787365922955 16.1514460243178704 12.8289352259134688 N
atom 14.8721286834851920 16.2736978057799035 7.5630799445932961 N
atom 14.8382511576747795 16.1909233581950502 1.9749370750180395 N
atom 11.5128635418973708 16.1469480870832385 12.8400749268914378 N
atom 11.5853095319876811 16.0720329534308561 7.2069198692194458 N
atom 11.4909841262988230 16.1380058295843867 2.1418753491108649 N
atom 13.1127095889943472 13.4358294577895840 12.7037461754476322 N
atom 13.2658863983893980 13.3210143220612114 7.4452872109259358 N
atom 12.8874804771434555 13.4483693695747846 2.0772738348309452 N
atom 14.7717133999275703 10.6496027968632774 12.7001593322344739 N
atom 14.8219714251750734 10.5949007808731022 7.3162923330952809 N
atom 8.1782566050381291 10.6375090406365747 7.5629731953887518 N
atom 8.2596088749252434 10.5405758578038320 2.2453783438305916 N
atom 9.8034067071307440 7.5976771185585195 12.7254609145259785 N
atom 9.9190834197035702 7.4883910231916140 7.2980625080265664 N
atom 10.0681449547190383 7.6842316566083051 1.8976455325853125 N
atom 11.6988017725836642 4.9230042085831043 12.5621620900849091 N
atom 11.4937254238554249 4.7959910873960858 7.3038696493265469 N
atom 11.5683011998856404 4.7497498773625546 2.0567267527318638 N
atom 12.9521896923361108 1.9760260972608963 12.6954944441975268 N
atom 13.2816232402361347 1.9442020471596881 7.3748743172574223 N
atom 13.3163841158695888 1.9431624249596104 2.1451377418452453 N
atom 13.1698746100204023 7.4315176568616614 2.0194226186156365 N
atom 14.9878867390837449 4.8212847476849126 12.6062066687456920 N
atom 15.0009600739893330 4.7771063340262767 7.3478458308310941 N
atom 14.8958049736079570 4.6981074323751848 2.0395312686746827 N
atom 4.8200194524127857 16.1784075722918992 12.7357042624575829 N
atom 4.8850490475743031 16.2729624610847310 7.4491578779157575 N
atom 4.9104531137790470 16.2250274868825990 1.9627015688936305 N
atom 6.5767416956693419 13.3163793430332404 12.9541165355041432 N
atom 6.5520990876613920 13.4173692352338971 7.2760541304135780 N
atom 6.5941567396883878 13.3348942239794557 2.0611253123854656 N
atom 8.2983990015626965 10.4112882253985042 12.5955985586479891 N
