#===============================================================================
# Created using the Atomic Simulation Environment (ASE)

# Thu May 11 09:00:42 2023

#=======================================================
lattice_vector 16.5841519999999996 0.0000000000000000 0.0000000000000000 
lattice_vector 0.0000000000000000 17.2347563186669994 0.0000000000000000 
lattice_vector 0.0000000000000000 0.0000000000000000 16.1779175999999900 
atom 16.5302596784439224 15.2454761495082440 2.6764938193287264 Ga
atom 1.7270312820758844 12.5411961007225088 13.5264586685789752 Ga
atom 1.6895274778858393 12.3541796679208407 8.1222491881281300 Ga
atom 1.5427608304919973 12.3385603644286128 2.7307119775611279 Ga
atom 3.4610905156422462 9.5903428289010790 13.3605510086478052 Ga
atom 3.3609472371735176 9.5632974819781431 8.1763094102883329 Ga
atom 3.1702802687606799 9.6809462116738079 2.6910500386764475 Ga
atom 4.9633268595558659 6.6982694393011446 13.3362093379314732 Ga
atom 4.9349166521441346 6.7130899677485845 7.9623767570491069 Ga
atom 4.8518353953369457 6.7990670759622018 2.7841008050543650 Ga
atom 6.6249515441893081 3.8041376126116426 13.4202948987354151 Ga
atom 6.6316268268833589 3.8885926480129180 8.0704545438013575 Ga
atom 8.1667821351219825 6.6626279844532279 13.4098490463076470 Ga
atom 8.3641366976648275 6.7900235136753180 8.0069313672056079 Ga
atom 8.2412461584053798 6.7395290106642634 2.5331579513977651 Ga
atom 10.0043591019542930 3.7775142966206992 13.4489939139915577 Ga
atom 10.0328192642309357 3.7858904265268403 7.9309965686991850 Ga
atom 9.9647797369147533 3.8405050740146272 2.6307738474186215 Ga
atom 11.4290850621222795 0.8715620067330448 13.4586105454457119 Ga
atom 11.6163554537418463 0.9360059537385501 8.2389409225544714 Ga
atom 11.5765192713973573 1.0455554695232754 2.6809294733291136 Ga
atom 0.0723184561018299 15.3244231040362475 13.6260246823032141 Ga
atom 16.5424624694936924 15.2976668785843870 8.1448355321318928 Ga
atom 3.4330760570852088 3.8366163532235538 8.0317412615742860 Ga
atom 3.2897938055437521 3.8840559056929123 2.5172066080680238 Ga
atom 5.0003246227931690 0.8637624862798741 13.5798064174662283 Ga
atom 4.9799516134681845 0.8197294466150205 8.0396721765246379 Ga
atom 4.9474670287858808 0.8072006774797859 2.6432612836518454 Ga
atom 16.5814527379165426 3.8632645548059168 13.3656756780506321 Ga
atom 0.1344201921193131 3.8821006524634583 8.0910396696406135 Ga
atom 0.0362077076431487 3.8924581341376356 2.7588690134565037 Ga
atom 1.6652987428056236 1.0310361370560415 13.6044835081526809 Ga
atom 1.7680060299252121 1.0176539209297282 8.0824259486977752 Ga
atom 1.6141837120925517 0.9343570487121584 2.7123115960768494 Ga
atom 6.5522121119809729 3.7849893412796578 2.7561109837731403 Ga
atom 8.1499957892595418 0.8115791029750294 13.4825950747228678 Ga
atom 8.3219591676093714 1.0219036592085926 8.0647485663961564 Ga
atom 8.2942646120744694 0.9675668345639008 2.7303648033780781 Ga
atom 0.0247067512755078 9.5575209821278762 13.3835265778664336 Ga
atom 0.0202139676814439 9.5879665136298922 8.2506761243539195 Ga
atom 16.5096127219962874 9.5938453181724324 2.6946353701289389 Ga
atom 1.7197762081785999 6.5878431986974677 13.3240370545942746 Ga
atom 1.6470615765592744 6.6639796833420561 8.0771284301497506 Ga
atom 1.6448164359384985 6.6533880591285763 2.5411208754035051 Ga
atom 3.3920636356418448 3.7642701630653073 13.4225172518488449 Ga
atom 11.6266457242074690 12.4396462809386463 2.7663965202094856 Ga
atom 13.2184809843665807 9.4739936638053610 13.4448384225816504 Ga
atom 13.1924474733345480 9.6011049353214641 8.2189381429487156 Ga
atom 13.1743235709919855 9.3997656485480299 2.5840569096238224 Ga
atom 14.9399589348328519 6.7166958478265588 13.3973819262727698 Ga
atom 14.9979813587361459 6.6785604581624627 8.1416243787034226 Ga
atom 15.0239045471267687 6.6639440723623729 2.7175494633265322 Ga
atom 6.6269988959916217 15.3998911929278854 13.4978123609403582 Ga
atom 6.6603585564896797 15.3609460723539630 8.3169966844224064 Ga
atom 6.6360615419975764 15.2852522455841342 2.7432580364104195 Ga
atom 8.3525999680522709 12.4169486109093015 13.5692169478830706 Ga
atom 8.2743388349844427 12.2686299782371382 8.1877833776840276 Ga
atom 13.2973609805221340 15.3949901609168460 13.5286417039687894 Ga
atom 13.2571678979152665 15.3994523061284578 8.2521197393500803 Ga
atom 13.3460265746873379 15.2979318019059036 2.7526769517386547 Ga
atom 14.9162682761845975 12.5507162881899479 13.5893171068281546 Ga
atom 14.8374896549627255 12.2625950099110845 8.2145065897119984 Ga
atom 14.9220274876068260 12.2902204541785558 2.6457762319610243 Ga
atom 9.9257908505265746 15.3733534754323671 13.6637437000229465 Ga
atom 9.9183873164256546 15.2028391469555988 7.9689979369936452 Ga
atom 9.9589144301768329 15.2921239774050051 2.8107361041913084 Ga
atom 11.5666429497559076 12.5203304105516615 13.4266380424529999 Ga
atom 11.6428132427523785 12.5603935501926411 8.2328513309029603 Ga
atom 14.9937736566524400 1.0387903454279970 8.1424871662405689 Ga
atom 14.9876265154744868 0.8820310769479202 2.6888447895775833 Ga
atom 3.3214757204049858 15.2777679397061554 13.5233533439600997 Ga
atom 3.3191723020168422 15.2873161393462880 8.2185203926792454 Ga
atom 3.3272675544739716 15.0878358710641916 2.7178652609465459 Ga
atom 5.0821932351262413 12.4692893304352204 13.4412798200325661 Ga
atom 4.9937363681523932 12.3436980922386486 8.0896750584881119 Ga
atom 5.0417277274324803 12.3937049360381106 2.6893734116634942 Ga
atom 6.6073432899533024 9.5332053478928565 13.4764784198181182 Ga
atom 6.5687614773561167 9.4634529236470648 8.1290855254127266 Ga
atom 6.6039402216847867 9.4770030984472697 2.6137491213698776 Ga
atom 8.3502927414943926 12.4651982774062624 2.7733525103541652 Ga
atom 9.9917596277181051 9.6813193614773105 13.4687791451817400 Ga
atom 9.9630597910321423 9.7191157948791780 8.2792300944628874 Ga
atom 10.0285681204702009 9.6141833829942271 2.6290937740164400 Ga
atom 11.5720561847043033 6.7313068884048546 13.2977418508136065 Ga
atom 11.5185515509738465 6.7096811786009045 8.1351050434938657 Ga
atom 11.7252961429258775 6.6111243828359347 2.6987609567959971 Ga
atom 13.2159708790390269 3.8078417498453843 13.5333002620898686 Ga
atom 13.3088560632088519 3.8625878342554771 8.0257796941420949 Ga
atom 13.3621481048407613 3.8763127129588892 2.6168770784599666 Ga
atom 14.7730040011229278 1.0435064793344766 13.3933564844068496 Ga
atom 6.5623525359494828 7.7524606631174962 5.2247175512505697 Ga
atom 8.2350172923847911 4.5815833542530795 16.1289476732435801 Ga
atom 8.2001528536015744 4.7447133790542875 10.7584547287302996 Ga
atom 8.1970348514002538 4.7474276729616616 5.3581926939107962 Ga
atom 9.9598130622260719 1.9393366270184866 0.0474937482128852 Ga
atom 9.9446339682702689 2.0464022179970978 10.8255729781318859 Ga
atom 9.9963156735772714 1.9736927910125313 5.3866279740893965 Ga
atom 16.5368913582651444 13.4120814589038240 0.1480528961506285 Ga
atom 0.1253819016344757 13.3694934772369987 10.8488121072082659 Ga
atom 16.4096458773293570 13.2720559400872329 5.4555211843575533 Ga
atom 1.5943432190091604 10.5342756797938204 15.8615936498005858 Ga
atom 1.5842112227469876 10.6318580922733155 10.8232204572941342 Ga
atom 1.7485369362078840 16.3209120103005745 0.0547005267986709 Ga
atom 1.6374829471429064 16.3770938164688502 10.8557007299472996 Ga
atom 1.5249247216485915 16.2907353736563039 5.4323669390766645 Ga
atom 3.3355823195272878 13.4303033796846751 0.1990997322673630 Ga
atom 3.3465096042965214 13.5104352064334687 10.8622431062626941 Ga
atom 3.1557556944056522 13.5091182585961569 5.4981045681363856 Ga
atom 4.9867111032646880 10.6267245498371636 16.0671276720288212 Ga
atom 5.0094924122584583 10.6029526049646474 10.7383438812707670 Ga
atom 5.0077152609001105 10.5248274170868790 5.3488073921974673 Ga
atom 6.6075624614129858 7.5663473568768485 0.0226775748326487 Ga
atom 6.6644351997186098 7.6654634170191382 10.6990829339937505 Ga
atom 16.5465412219869528 7.8329377511321745 10.7513327713251545 Ga
atom 0.0592617443144338 7.6140869323742244 5.4091873691132895 Ga
atom 1.7287029941630474 4.8648933677672845 16.0953152067700067 Ga
atom 1.7842818603428052 4.8261800297399091 10.5259658093702591 Ga
atom 1.6507769621780350 4.8568653990190347 5.4475319160510578 Ga
atom 3.3322116644251358 1.9716499984217677 0.0884184507569148 Ga
atom 3.4540665444310039 1.8099580717460655 10.8315742019766041 Ga
atom 3.4533467538057390 1.9543904672158638 5.3278044420306019 Ga
atom 16.5749126930895336 2.0996473185312845 16.0071377726226274 Ga
atom 0.1062700555521685 1.9836889512801903 10.7090330105406366 Ga
atom 0.1007719695637395 2.0742063077730917 5.4394534071143630 Ga
atom 1.5221147438711933 10.4224906730660862 5.3069282503006185 Ga
atom 3.4091280272238138 7.7478123168337536 16.0104156388355889 Ga
atom 3.4515198870558104 7.6699825776988844 10.6026527580238277 Ga
atom 3.2971684079264834 7.6930218890948279 5.4068730600661929 Ga
atom 5.0601404916173083 4.8822214775624886 0.0223362051008724 Ga
atom 4.9915756397304429 4.7942256392435905 10.5976531951045096 Ga
atom 4.8841675387489616 4.7446533466549861 5.3344859648160403 Ga
atom 6.5709249917209043 1.9122178031167119 16.1430001858653647 Ga
atom 6.6548841542086521 1.8633340466576980 10.7549481554233850 Ga
atom 6.6805210713584371 1.9214161334391591 5.3023141304902328 Ga
atom 16.4925061289937105 7.6044040227166461 16.0046842089556201 Ga
atom 14.8290858764948279 10.5384576324965735 5.3712618327715891 Ga
atom 8.2872477979444081 16.3112814044946468 0.0086125239720430 Ga
atom 8.3580100038653402 16.3755703933262780 10.8281595221913776 Ga
atom 8.3196965502463573 16.2878198937578063 5.4479031545042531 Ga
atom 9.9123758441013674 13.4062973943875843 0.0674041501527069 Ga
atom 9.8677568813637055 13.4432116688942322 10.6809154216191153 Ga
atom 9.9998784162913132 13.2745908622017339 5.3130168963381230 Ga
atom 11.7046703665145255 10.5267148079690376 16.0565124507952532 Ga
atom 11.5102461146300801 10.5193918353230504 10.7674412577769800 Ga
atom 11.6289371018377281 10.3792777475044424 5.4260194293039321 Ga
atom 13.2757860121208608 7.6218762846391481 16.0779841706563964 Ga
atom 13.2632150814708520 7.6533021891150872 10.7703708721333520 Ga
atom 14.9801533288418227 16.1959555947944835 16.1189963306756319 Ga
atom 15.0114780559137717 16.2766565156368443 10.8446554752312263 Ga
atom 14.9141460812794602 16.1626224082314103 5.4619477140337613 Ga
atom 11.5438307497829467 16.2659384095286583 0.1636179059283364 Ga
atom 11.7381918782454768 16.2903311980359540 10.8068599963862528 Ga
atom 11.6019028248419271 16.4435445858205647 5.3625111098717522 Ga
atom 13.2241949378733299 13.4135623123658139 0.0269626068794049 Ga
atom 13.2969765600398073 13.4170975467104032 10.9593411356525881 Ga
atom 13.0920011788912891 13.4736062784352875 5.4638457358159060 Ga
atom 14.9863246079062353 10.4872709882921473 16.1036961565289474 Ga
atom 14.9464580572851720 10.5564993494086146 10.9381567238558990 Ga
atom 8.2838473984865217 10.5016148710117552 10.8099149783344881 Ga
atom 8.3530059293806698 10.5515184531079136 5.3532809607961180 Ga
atom 9.7907315487270594 7.6827789630637335 0.0320988578250093 Ga
atom 9.9667770912307176 7.5471250809854880 10.7215587947974651 Ga
atom 9.8264365543197130 7.6201388560518977 5.3314908900703868 Ga
atom 11.6512776430671465 4.8886890018745772 16.0416790645133176 Ga
atom 11.6176647062618592 4.7705234818091142 10.8134990154212360 Ga
atom 11.5093339733322839 4.7638366186654908 5.2678430730330934 Ga
atom 13.2162451548756561 1.8495691929205922 16.1334745852910650 Ga
atom 13.2863737870141190 1.8516031632722654 10.6617495685975587 Ga
atom 13.4085473077425430 1.9846195506441022 5.4961831521103495 Ga
atom 13.1695825073530557 7.5522854514181832 5.4546781186085704 Ga
atom 14.9285570562289926 4.7544461155827884 16.1355315518630000 Ga
atom 14.9029956878390255 4.9047211630966423 10.9248001089995022 Ga
atom 14.8712436586467351 4.8392373078029269 5.5405475166832989 Ga
atom 5.0131486987089087 16.2499468688175881 0.0086410561473586 Ga
atom 5.0825066964801469 16.2644038023054698 10.9315516965490236 Ga
atom 8.3333097894079753 10.4913538504114765 0.0608204066781084 Ga
atom 6.4245035624965139 13.3941279838767482 5.5267072067249394 Ga
atom 6.5528168689752517 13.3521789367366797 10.9136764478873580 Ga
atom 6.6327148216459246 13.2940307131556885 16.1542621522825556 Ga
atom 4.9216713155413245 16.2840502863285437 5.3978001389962360 Ga
atom 3.3651577237617185 9.5647867298891303 10.1901240114403890 N
atom 3.3275570591549521 9.6921595356566925 15.4114850133369679 N
atom 1.6069839575862421 12.3944447966484645 4.7888626173281477 N
atom 1.7847038633264034 12.3526072202478119 10.1740901038457725 N
atom 1.6867164440109015 12.4175239461698510 15.5851016788742296 N
atom 16.4701979673668184 15.3140072445157482 4.8592040263695422 N
atom 3.1718705375118996 9.5631762689273430 4.6617595723828744 N
atom 4.9966268875160678 6.7535758579989631 15.4613834398201959 N
atom 5.0830941760844732 6.6721463786099759 9.9054250953279759 N
atom 4.9388007549325623 6.7104289880368473 4.7426544941811546 N
atom 6.6078311773526224 3.9070743453398200 15.5492968836306460 N
atom 6.6264153719579681 3.7785241888607515 10.0885518724530581 N
atom 8.3235704282199858 6.6073025137067534 15.5979290963168733 N
atom 8.2894921519529827 6.7234264711775813 10.0982848112556365 N
atom 8.0705558705704288 6.7195579859589794 4.5967186937392190 N
atom 10.0125742109035336 3.6619973192328432 15.4707486268222461 N
atom 10.0369480128463309 3.7816254966239335 10.1181871675632244 N
atom 9.8602708914054915 3.9239746770905044 4.5963086065828858 N
atom 11.5078634447154506 0.9101271968825789 15.5849550134073347 N
atom 11.6182991034816379 0.9831307502440662 10.1931770083270745 N
atom 11.6083043847811496 1.1019703922994082 4.7169184303723242 N
atom 16.5707479390285428 15.3100124869405416 15.5753869191246963 N
atom 0.0756611222009686 15.3374598878175910 10.1924674291666175 N
atom 3.4849295513251120 3.7098451484774158 10.1140661546223889 N
atom 3.2723429993862583 3.8411870122100247 4.6020576159435072 N
atom 4.9980556082704739 1.1133536831541271 15.5451552732482359 N
atom 5.0134930351686515 0.9752949421879503 10.1004789716867052 N
atom 5.0633415113922648 0.8905338379069639 4.6802693593548366 N
atom 0.0448375838426411 4.0375605489366473 15.4282942693886298 N
atom 0.1091675924578045 3.8891325931399519 10.0673850130367448 N
atom 16.5181714220408438 4.0011263934622470 4.7689084474355328 N
atom 1.6832962918674301 1.0387811810679635 15.5539567832641286 N
atom 1.7414870981373738 1.0074953039826573 10.1440521095624927 N
atom 1.7175202775451741 0.8954181747750122 4.7861318658536911 N
atom 6.5444050403563168 3.8102633355215603 4.7598729448129911 N
atom 8.2356001593986221 1.0588878780435049 15.3679957867473629 N
atom 8.3993037778562325 0.9936260839539621 10.1256616190769737 N
atom 8.2632432593259111 0.9560992387521934 4.8434905903781420 N
atom 16.4899217174686186 9.6123107529888809 15.2689776543944813 N
atom 16.5735630397929512 9.6815772755301168 10.1637817343024288 N
atom 16.5036928646240995 9.5721414857910663 4.6986549312340937 N
atom 1.6877440537300450 6.7518995843811842 15.3775527217412264 N
atom 1.6659853893221717 6.8477582951419000 10.2039177618652221 N
atom 1.5920708087881399 6.8686957865348575 4.6965583361233723 N
atom 3.3379954496056388 3.8875854852370875 15.4622388243207336 N
atom 11.6563190955403115 12.3250550922355977 4.7667177462773003 N
atom 13.2548574143888125 9.5625041068565437 15.3481680087967618 N
atom 13.3283139006267124 9.6549131241011157 10.1159145804528592 N
atom 13.2651249890991298 9.5502996997697505 4.6234541090069561 N
atom 14.8301752029442344 6.6374137623487455 15.4989502299184316 N
atom 14.9638415172442301 6.8255577525667173 10.0968170012065617 N
atom 14.9022481347389864 6.7321964748004843 4.6114253818979760 N
atom 6.7466550017319697 15.4458736070147573 15.5901155272683365 N
atom 6.6752171726098384 15.1835516632211771 10.2837577484270533 N
atom 6.5657193040365298 15.3762249542337930 4.7271154075179425 N
atom 8.3094210985910486 12.4068406214546272 15.7121834177692836 N
atom 8.1865116367547976 12.4244488572389074 10.3094664550923287 N
atom 13.2333243400819196 15.4135479210587256 15.5213803483418715 N
atom 13.3944982947652846 15.2637145576398687 10.2117734822239115 N
atom 13.1550277553188000 15.3540687271638241 4.7512823992756763 N
atom 14.9500807386564727 12.6296080316829595 15.5737005123832422 N
atom 14.8912613904594959 12.5536432917020342 10.1101440889965080 N
atom 14.8277174152436366 12.4811915362229620 4.6222872306845577 N
atom 9.9469602438556262 15.3543792593438901 15.6749800897946425 N
atom 9.9287532092480788 15.4972818422021561 9.9547263973494271 N
atom 10.0078233028199328 15.3706541187531744 4.8150700899944860 N
atom 11.5608005775059723 12.5180816496263336 15.5453341566737038 N
atom 11.6007664332641856 12.4335011829864346 10.3314088433234215 N
atom 14.9679034027943541 1.0140357883741147 10.1850428242156923 N
atom 14.9684988520310007 0.8651171060909010 4.8233586095720300 N
atom 3.4500466362847559 15.2701738296042144 15.5450154697384360 N
atom 3.3343779168524903 15.3319021787106848 10.2419363777929036 N
atom 3.3464654241336698 15.3994883170248045 4.7153372787116501 N
atom 4.9687090734519170 12.5763831352068038 15.4397155817911411 N
atom 4.8808254271489053 12.5001382632173925 10.0231350269686068 N
atom 4.8378134759576330 12.5259004461515548 4.7803591057700565 N
atom 6.7097372808895104 9.5722278119087747 15.5175647156150145 N
atom 6.7467443454128091 9.6496094712663858 10.1709151268793487 N
atom 6.6441252585838466 9.6257039665016926 4.7128860367720566 N
atom 8.2195414257822019 12.3895475029601680 4.7224946132175809 N
atom 9.9735133546099011 9.6951803823417890 15.5800295106667868 N
atom 9.9092156866148891 9.5298062941698980 10.3193477879695479 N
atom 10.0735515698973703 9.5289026397308696 4.7334889574004730 N
atom 11.5870741688147625 6.7643574612157167 15.4100640393287254 N
atom 11.6371312235261968 6.7497472527014670 10.1728401732338156 N
atom 11.6883151710685098 6.6623107065712706 4.6983816648673189 N
atom 13.3298127317394410 3.7632794035853099 15.3827617368492273 N
atom 13.4182241844497216 3.9371084616380068 10.1850710121100381 N
atom 13.2774311960744367 3.8360894234282492 4.7266157395154664 N
atom 14.8958991727937526 0.9956754784837593 15.5348494289757486 N
atom 6.5364248817125699 7.7343274443172172 2.0193724974947478 N
atom 8.2898362921283422 4.6916469175259499 12.8135178396025236 N
atom 8.4577848374358453 4.8562351454165347 7.3760103632162357 N
atom 8.0963301028857977 4.7528143650809618 1.9970250040908994 N
atom 9.9028583606030125 1.8407277386565473 12.7764408905639844 N
atom 9.9538851548693525 1.9188617732489996 7.3039689386922175 N
atom 9.9367676947479353 1.9855030660706212 2.2158167737774295 N
atom 0.0165729508816452 13.4401973500804228 12.8985621047669987 N
atom 16.5051156214607211 13.3515473583965285 7.4894482704416614 N
atom 16.5158053812307166 13.2298511325424428 2.0550576351117478 N
atom 1.8604253495351231 10.5184106053834441 12.8194681952639673 N
atom 1.5595055607484345 10.5645508853307888 7.5336168201036555 N
atom 1.7253859044859174 16.3398390662200903 13.0435149777376367 N
atom 1.7369070512325617 16.2158773649563237 7.5960784091116524 N
atom 1.6343346545672419 16.2282086240490457 1.9537682189428356 N
atom 3.4238188725975318 13.4567326108654743 12.8266576213721386 N
atom 3.3785239615666716 13.4445310904176747 7.4344386036139865 N
atom 3.3449658217235427 13.0960904757134529 2.1752419474627640 N
atom 5.0539762442544038 10.5873159602787297 12.7390889321077605 N
atom 4.8976340379379115 10.5642480376387535 7.5365381586729745 N
atom 4.9752876036726725 10.5476775360967512 2.0348711903488290 N
atom 6.7021916956447614 7.6427280274071325 12.7157234947029920 N
atom 6.6014815356210086 7.6608231667401157 7.2913763095811746 N
atom 0.0835681046735521 7.7128681536279196 7.4764272664967164 N
atom 16.5764249271925088 7.8324422295771043 1.9784828593894650 N
atom 1.5352819078885647 4.7921079547318621 12.7033423408746859 N
atom 1.6683692229722871 5.0135069157554364 7.3510396796433097 N
atom 1.5819066549167418 4.8444969515193588 1.9168818396243958 N
atom 3.3907586664437743 1.9163211538981504 12.8656183182744090 N
atom 3.3344942070628503 1.9655346741194821 7.3350359181539364 N
atom 3.4027882704562633 1.7603049087344387 1.9655857255979754 N
atom 0.0148393646134516 1.8896683938230472 12.6883648769775856 N
atom 0.0346004546912098 1.9902398740174574 7.4008630737055565 N
atom 16.5370875206915748 1.9407597311634830 2.1366166022879547 N
atom 1.5945604332466945 10.4376305540032508 1.8728380427165505 N
atom 3.3233750778762090 7.7070298920944333 12.6409374218339874 N
atom 3.2562788204038293 7.7119621800388902 7.3786407842571702 N
atom 3.3528968204779663 7.7460738558306552 1.9363504954887396 N
atom 5.0026340711536061 4.8181870404990050 12.6172690352914643 N
atom 4.9999167258121364 4.8073522253285335 7.3396751183649416 N
atom 4.9920133961423181 4.7586201968891659 2.0145576516254877 N
atom 6.5663161273093102 1.9257170507906991 12.6990959935267789 N
atom 6.6246869668458652 1.8964176590594823 7.3679400372677959 N
atom 6.7178531810084268 1.9130134484257486 2.0008812591990228 N
atom 0.0892790050833583 7.6062860680536835 12.7462867750389997 N
atom 14.8240964631290666 10.4869098950383002 2.0129490361160829 N
atom 8.2321346387296792 16.2715097829651398 12.8431097645452841 N
atom 8.3116398984736808 16.2115328924175657 7.5005467030653827 N
atom 8.2536848605971578 16.2337664462135400 2.0145264144580217 N
atom 9.7952953136406329 13.4871246711180710 12.9485423582852945 N
atom 9.9155486999340567 13.3304717172377831 7.4261056977494002 N
atom 9.9550370826972756 13.4218284835042763 2.0476439961200859 N
atom 11.7115467449608470 10.6371394964150401 12.7979143405694487 N
atom 11.6126683292916031 10.6624073760592530 7.4659620700246450 N
atom 11.6210034688449930 10.5586145616479765 1.9360861464813885 N
atom 13.2546836537463442 7.6312159080642878 12.7545968545039532 N
atom 13.2607808172205175 7.6272389898316897 7.5094104699249735 N
atom 15.0781376313266566 16.2353493024912190 12.8023582936147484 N
atom 14.9367723526980605 16.3004691874766827 7.5961669727919334 N
atom 14.9805797935238481 16.2482844959664554 1.9872550576656964 N
atom 11.5976859352640513 16.3100102412742096 12.9827637129995992 N
atom 11.5728376302284737 16.3131173586650320 7.5399949921157692 N
atom 11.5773692801545920 16.2094685223369019 2.0025151370816623 N
atom 13.2665412161471359 13.4532578618202834 13.0498293270559209 N
atom 13.1563334438806674 13.4269880288309391 7.5096867110158927 N
atom 13.2552854792803068 13.4228102249821344 2.0369800619365881 N
atom 14.9332047734645172 10.6265820537062545 12.9267329032581291 N
atom 14.9372536089776027 10.5647015169674443 7.5182108328694000 N
atom 8.3361902256571518 10.3745078836041795 7.4127486646718319 N
atom 8.4194929932344209 10.3697586768854055 2.0568209919582654 N
atom 9.9582159296475794 7.6682225308489231 12.8391743604272701 N
atom 9.9310493471400942 7.7479528658163632 7.4549166354013909 N
atom 10.1040736055860343 7.6250676515370621 2.0657111692422916 N
atom 11.5324388333712342 4.9904578231633945 12.8490164325583649 N
atom 11.7669272863923347 4.8465011600270849 7.2651340130695505 N
atom 11.7010009777967454 4.7319870462655897 2.0093530388320424 N
atom 13.1491772205169184 1.9119954112839039 12.6785461765721781 N
atom 13.3020695454624356 1.9894637755808917 7.4927291534932845 N
atom 13.2814557454823579 2.0682112032624360 2.0180721243727215 N
atom 13.2854152562321488 7.6215081563580398 1.8445161211397592 N
atom 14.8037207573284295 4.7908260975898589 12.8623504628209631 N
atom 15.0469430693868773 4.7191882646495049 7.4184577272950598 N
atom 14.9524794294705714 4.7304800416838448 1.9147529388008990 N
atom 4.9694622135603899 16.3467184259700389 12.9505365509043546 N
atom 4.9044018540560259 16.1898050178165498 7.4593303258526751 N
atom 4.8649073230793238 16.0461729030353624 2.0418104036077604 N
atom 6.7160992801306740 13.4316111018774009 12.8815211242043617 N
atom 6.7065132731486479 13.3564307893682113 7.4448790870378971 N
atom 6.6372218992303846 13.3852681118051482 2.1090280161093622 N
atom 8.1606010474844215 10.5382966650154088 12.9359222983873607 N
