#===============================================================================
# Created using the Atomic Simulation Environment (ASE)

# Thu May 11 08:59:08 2023

#=======================================================
lattice_vector 15.6273739999999997 0.0000000000000000 0.0000000000000000 
lattice_vector 0.0000000000000000 16.2404434541285205 0.0000000000000000 
lattice_vector 0.0000000000000000 0.0000000000000000 15.2445761999999903 
atom 15.5603846909188306 14.4088335009533548 2.5214417355990668 Ga
atom 1.5282309226151414 11.7284596174023310 12.6845334643222039 Ga
atom 1.5373816599214496 11.7473661983903028 7.6030463515714439 Ga
atom 1.5724529001982754 11.6859964047205303 2.5404810397564552 Ga
atom 3.1283578821105440 8.9798011060258105 12.6444536794178379 Ga
atom 3.0701653284953312 9.0088116217977863 7.6112090704007898 Ga
atom 3.0665759090408322 8.9831516260545801 2.5701663758911986 Ga
atom 4.6989821464566592 6.3299573611220321 12.6574415238503040 Ga
atom 4.7224013021802156 6.2987994318013509 7.5873213845331673 Ga
atom 4.6706890836488082 6.3140383051260605 2.5545809596038453 Ga
atom 6.2854644733573464 3.6035424194820158 12.7125656644941412 Ga
atom 6.2242508557533283 3.6227067668274593 7.6076552501657435 Ga
atom 7.8113405257944724 6.3151055223636670 12.7447248110021771 Ga
atom 7.7569827330536656 6.3305595967754300 7.5632948936791369 Ga
atom 7.7962923719670618 6.3096262014231508 2.5011598932951742 Ga
atom 9.3767085276234372 3.5464337307351164 12.7066003423993941 Ga
atom 9.3601363087192908 3.6653099502231514 7.5744093237772292 Ga
atom 9.3663182724714797 3.5919639813845827 2.5258673136378369 Ga
atom 10.9365015448999134 0.8587665956400214 12.6492652154142444 Ga
atom 10.9419354987292632 0.9043366954241782 7.6499078812815453 Ga
atom 10.9458137971435203 0.8889744767192582 2.5320071627496192 Ga
atom 0.0326255532439634 14.3948953122400702 12.6214944207210440 Ga
atom 0.0319406251848552 14.4726876113894516 7.6402470482967999 Ga
atom 3.0941469262903221 3.6366105970013249 7.6496972801259417 Ga
atom 3.1685487700103279 3.6775743034466215 2.5485579530006359 Ga
atom 4.7143733016524401 0.8479721519147820 12.6616180903107018 Ga
atom 4.7095508285500678 0.9709156526014286 7.5325500455211989 Ga
atom 4.6974473969335362 0.8379076182747833 2.5074753046109031 Ga
atom 15.6221425794052511 3.5992146350328098 12.7326519307737183 Ga
atom 15.5920377873795140 3.5482570559312681 7.6888243231648810 Ga
atom 0.0110909602889015 3.5719850467972005 2.5818828625941297 Ga
atom 1.5862844467376338 0.8890989164227736 12.6845296005886361 Ga
atom 1.4851936666943453 0.8743710968166054 7.6523402310573214 Ga
atom 1.5665432960349321 0.8656018576373056 2.5470661376570081 Ga
atom 6.2717883517999891 3.5935328418206436 2.5174217739065874 Ga
atom 7.7948537285179116 0.8811825274668234 12.7360044671404111 Ga
atom 7.7427005006885263 0.9173526380662641 7.5751728791923538 Ga
atom 7.7954179137089934 0.9032959857199849 2.5625149422727254 Ga
atom 0.0070296324557356 8.9535785648768140 12.6790622342824122 Ga
atom 15.6089424398186729 9.0555893467800974 7.6186724807523820 Ga
atom 0.0479474709421425 8.9420067084755264 2.5054861406985767 Ga
atom 1.5836063760272203 6.2712803997351259 12.6674521994234848 Ga
atom 1.5380040123740462 6.2830847076847842 7.6033320762958949 Ga
atom 1.5528185001322181 6.2717498826648574 2.5677128570273786 Ga
atom 3.1149459313092924 3.6478019625312377 12.6743886844278393 Ga
atom 10.8957852655029352 11.7151647894582442 2.4900906185098743 Ga
atom 12.5431160046391650 9.0286997615403077 12.8029012924227761 Ga
atom 12.4997177492907046 8.9922819909795280 7.6193564888157965 Ga
atom 12.4748533195701086 8.9647082625285837 2.5377879006685071 Ga
atom 14.0091148960924556 6.3083590945963746 12.7134042405778356 Ga
atom 14.0123607094493750 6.2899446385377598 7.5953867432331377 Ga
atom 14.0135224184951745 6.2661401547019553 2.5355116119785417 Ga
atom 6.3117175669620531 14.4008471371715761 12.6616653616685415 Ga
atom 6.1891444973945813 14.4040799609309040 7.6015456777055048 Ga
atom 6.2334179296487200 14.3866816557780535 2.5551812487365138 Ga
atom 7.8590759913355690 11.6922122535580950 12.7003435682188357 Ga
atom 7.7684951928181576 11.7093485958069703 7.6393651295273788 Ga
atom 12.5549024448517024 14.4295281903854686 12.6777859022301307 Ga
atom 12.5170669589926060 14.4515343983218081 7.5428235327183399 Ga
atom 12.6052595805161705 14.4482077894964771 2.5425240578122232 Ga
atom 14.0305498924107841 11.7368135684768333 12.6853417690928509 Ga
atom 14.1420406470961399 11.7251705136284432 7.5950697696693581 Ga
atom 14.0836332572229601 11.7364501853252960 2.4724889080210324 Ga
atom 9.4612576061427820 14.5944684649026968 12.6588990591210901 Ga
atom 9.3303591429620276 14.4293366432403989 7.6797380598355378 Ga
atom 9.4345589321528767 14.4791550329868670 2.5661324410386204 Ga
atom 10.9311054283163411 11.7113441850544078 12.7039030637071484 Ga
atom 10.9523787320322565 11.7256731923880579 7.6387280585704449 Ga
atom 13.9964645901909979 0.9294775478059238 7.6447077597854589 Ga
atom 14.1278779829818379 0.8975626898832845 2.4850871910285210 Ga
atom 3.2452290833282071 14.4433542181525478 12.7375427969347985 Ga
atom 3.1164439036190763 14.4424662906186079 7.6308821812168759 Ga
atom 3.1715213330274588 14.4480068275683653 2.5517180213817516 Ga
atom 4.7326042961577492 11.7059006307710547 12.6764611986691023 Ga
atom 4.6119612839154520 11.7287360586648930 7.6475564382154264 Ga
atom 4.6631389492269433 11.7682361729138485 2.4906408273099458 Ga
atom 6.3354763936213239 9.0628827237200440 12.7546606294602078 Ga
atom 6.3035363205609691 9.0071853921486973 7.5727280043168204 Ga
atom 6.2095556701891708 9.0216515728584561 2.5699656840409326 Ga
atom 7.7850005186955462 11.7298588837851945 2.5704165640601397 Ga
atom 9.3916601546845300 8.9719408421747850 12.7655195924802847 Ga
atom 9.3583281649490484 9.0906727953885014 7.6763333764691462 Ga
atom 9.3195578580437139 9.0371830138400195 2.6299126286977832 Ga
atom 10.9350426718666895 6.2237015598412269 12.7983930505976087 Ga
atom 10.8826721853474346 6.3451198118441114 7.6292371617129442 Ga
atom 10.8776257066974456 6.3340125859359295 2.5225139743236125 Ga
atom 12.4667584719548969 3.6139374163113120 12.7882856516765493 Ga
atom 12.4983502598904614 3.5848864949822032 7.6230695478347190 Ga
atom 12.4788305782819329 3.6032305273775269 2.5138611120229735 Ga
atom 14.0427005978888264 0.9071714666150579 12.7089808923891407 Ga
atom 6.2335326229239847 7.2508304332666036 5.0241565729576800 Ga
atom 7.8685062666848173 4.5989256719841691 0.0287174913983123 Ga
atom 7.7661789319211723 4.5919816603066881 10.1276356570335295 Ga
atom 7.7735480880122783 4.6073701990011928 5.0298174566716245 Ga
atom 9.3446396301686168 1.8170964582390581 0.0283187923780194 Ga
atom 9.4358626212082122 1.8248752142055784 10.1671789880452916 Ga
atom 9.3720742234327616 1.8261749782009935 5.0438995589970874 Ga
atom 0.0618314008948432 12.6196681875065568 15.1937139396946179 Ga
atom 15.6034669001397077 12.6708815432377566 10.1340414582044129 Ga
atom 0.0052058508170870 12.6456141744567834 5.0350217769397165 Ga
atom 1.6469775430574316 9.8569596965140835 15.2369715872574023 Ga
atom 1.5878211652831589 9.8887268148554650 10.1410006582686432 Ga
atom 1.5866848698006641 15.3648403661805055 0.0228887503765926 Ga
atom 1.6134692014044729 15.3021059273843960 10.1730353984559141 Ga
atom 1.5601568630307527 15.3416537209864448 5.0700019269603693 Ga
atom 3.1820566477081766 12.6199837699577060 15.2284501512917547 Ga
atom 3.1803087635338647 12.6567134956090985 10.1904057196502613 Ga
atom 3.1831882940245593 12.6153950821326788 5.0835313427791489 Ga
atom 4.7458588482546666 9.9476755560663168 15.2299142273685444 Ga
atom 4.7053395277464141 9.9491736539482911 10.1227465505060135 Ga
atom 4.6751334721833748 9.9222079300266639 5.1207511371871286 Ga
atom 6.2459203851376026 7.3763580276874450 15.2238668204640533 Ga
atom 6.2744405520519084 7.2735667292452799 10.1519644452757198 Ga
atom 15.5584348774899492 7.2653794913094627 10.2011939067381565 Ga
atom 15.5850225049923328 7.2314225787644766 5.1517916893529465 Ga
atom 1.5522844892456280 4.4344426940984780 15.1798311121700547 Ga
atom 1.5002314110754262 4.4561227852565635 10.1394514827028388 Ga
atom 1.5786227289538775 4.4982467470717467 5.0555390466731298 Ga
atom 3.1852704587188385 1.7830519407318264 0.0445099079292237 Ga
atom 3.1364732100399477 1.8010432012963884 10.1985118987758572 Ga
atom 3.0970511297018084 1.7942197880884010 5.0293987509018541 Ga
atom 0.0130947449381141 1.8131853982288644 15.2264762901441770 Ga
atom 15.5463580212100858 1.7792728032763800 10.2092800520647575 Ga
atom 15.6015944247296261 1.8045295679570794 5.0758115886376238 Ga
atom 1.5416283768143277 9.9946769689865569 5.1335487916985718 Ga
atom 3.1831464797205511 7.1430332466455715 15.1746752460328089 Ga
atom 3.0696682235447610 7.1672617337542990 10.0904320669092584 Ga
atom 3.1294411082915952 7.1704923575867294 5.0401732443613643 Ga
atom 4.7607566506711301 4.5512038613227830 15.2112679697631812 Ga
atom 4.7118155152475785 4.5214991794825758 10.1331400445460940 Ga
atom 4.7361698951867437 4.4902659853568805 5.0564149210856231 Ga
atom 6.2781911463170363 1.8194961366958240 15.2324648065939172 Ga
atom 6.3060070736434071 1.7906708070584714 10.1622598605081684 Ga
atom 6.3164388944951995 1.8126399769684998 5.1392554236789536 Ga
atom 0.0856298125396165 7.1923801000152796 15.2098432479363943 Ga
atom 14.1581445469970504 9.9523690143229810 5.0341289875858868 Ga
atom 7.8364974422994651 15.3324675904868553 0.0097631319746270 Ga
atom 7.7669233775409854 15.2711322664978155 10.1225683413454473 Ga
atom 7.7847370539412220 15.3795894666523232 5.0508096539983516 Ga
atom 9.3978791347057502 12.6969527485730165 0.0226143937083845 Ga
atom 9.4775127612205257 12.6633046365952051 10.2185458272020266 Ga
atom 9.3117807450530599 12.6809795262497040 5.1284896518267091 Ga
atom 10.9276222793707074 9.8654297850176018 0.0170978926044949 Ga
atom 10.9465707023865804 9.9004352964006390 10.2253379876656592 Ga
atom 10.9999619205973875 9.9072259656224766 5.1488498968704448 Ga
atom 12.5429503750499229 7.2568409139694863 0.0584715222793547 Ga
atom 12.5045177023740255 7.2657488952245712 10.1584913258899956 Ga
atom 14.0592932675172033 15.2999425726656089 15.2234934014910870 Ga
atom 14.1113129339168797 15.3200924933476799 10.1415504462365504 Ga
atom 14.0725778194474209 15.3056303277776973 5.1342080837746495 Ga
atom 10.9867728753807175 15.3363568127980763 0.0033979353474200 Ga
atom 10.9535500278473776 15.3645346052547893 10.1785906380981412 Ga
atom 10.9048100530053738 15.3729988895836218 5.0477858927991948 Ga
atom 12.4880208575540834 12.6764916532965550 15.2191345789769343 Ga
atom 12.4834623375983540 12.6526529425048118 10.1169320363258795 Ga
atom 12.5206654855680934 12.6075329383946233 5.1269703270739617 Ga
atom 14.0877263726589810 9.9762311593144108 0.0203283705874262 Ga
atom 14.0681115440688966 9.9676332109308898 10.2138018012120568 Ga
atom 7.7763207725182504 9.9403002188410934 10.1565335065620825 Ga
atom 7.8166216634098467 9.9519245156225988 5.0690079123322525 Ga
atom 9.3304071243968085 7.2328327589166514 0.0573569280843586 Ga
atom 9.3630978749443035 7.2369260131279347 10.1205396725449059 Ga
atom 9.3717626575809465 7.2303145010257088 5.0865469925030364 Ga
atom 10.8779175576116511 4.5309970518623874 0.0438128498991041 Ga
atom 10.8970448174093608 4.5927201532546826 10.1698181828591370 Ga
atom 10.8357869131352835 4.5235976194636054 5.0719543650405381 Ga
atom 12.4579953272415676 1.7753206849244310 15.2398232545034595 Ga
atom 12.4985800717818574 1.8870026844525325 10.1267277034215333 Ga
atom 12.4659580194775419 1.7488176144301200 5.1147064592049256 Ga
atom 12.4591158213878526 7.2468232668691162 5.1114338995430648 Ga
atom 14.0719588905444351 4.4987435776286704 0.0791961286638780 Ga
atom 14.0233419971355602 4.4661396608080572 10.2775948704103595 Ga
atom 14.0079763038374576 4.4691429375729532 5.1049275252049178 Ga
atom 4.7738578558331364 15.3230606975813863 15.2441523087882338 Ga
atom 4.7524480781147460 15.3327989990806000 10.1269117146205438 Ga
atom 7.8115084724914956 9.9239735324441263 15.2171426480077088 Ga
atom 6.2712181712679804 12.6435235554531804 5.1863975468063828 Ga
atom 6.2503094659664642 12.6019260902318155 10.1606671064423981 Ga
atom 6.2653852017365841 12.5781516878627961 0.0118965716584456 Ga
atom 4.6525239775662381 15.3723768336298559 5.0847079091655543 Ga
atom 3.1102260776520776 8.9771441240664842 9.4986964390049504 N
atom 3.1320151554010423 9.0149867515865054 14.6069718255182650 N
atom 1.5820010221488516 11.7095709570830486 4.4493651559909395 N
atom 1.5567400060674441 11.7879033020810837 9.5489305008999494 N
atom 1.6733051439954518 11.6880774182797467 14.5932070533156324 N
atom 15.5785173210297554 14.4211573698545124 4.4228548955129323 N
atom 3.1230136103656858 9.0262790387649865 4.4617985728222420 N
atom 4.7050803626538578 6.3956601532095609 14.5706821446344534 N
atom 4.7730361302513105 6.3083088649096544 9.4751539645215370 N
atom 4.6968933583815158 6.2936951117828217 4.4236118750269053 N
atom 6.2678538322386057 3.6932586596372263 14.6014669496979899 N
atom 6.2421963421314217 3.5627815001004577 9.5203349492516498 N
atom 7.8199670159864958 6.4128625094705596 14.6995263977140116 N
atom 7.7862785998960291 6.2964138524868689 9.4721839252102811 N
atom 7.8058860683781752 6.3498265115766337 4.3736263033245857 N
atom 9.3392526750278808 3.5673792550675416 14.6296077796345791 N
atom 9.3977932593020412 3.6141964639871520 9.5935489311046211 N
atom 9.3265496527329663 3.5706397586991048 4.4213849373998055 N
atom 10.9219366278819496 0.9223409908928160 14.5322086411758864 N
atom 10.8995921838852077 0.8644554452384693 9.5445395585271751 N
atom 10.8815541147093100 0.8799257018340193 4.4187695495838826 N
atom 0.0826964420097682 14.4102169197607850 14.5083881852475987 N
atom 0.0127333175008983 14.4689372396292981 9.5043974437229082 N
atom 3.2288444682089668 3.6841955399997928 9.5434168027199391 N
atom 3.1380712948567084 3.6404616195978927 4.4507312541549515 N
atom 4.6090591518876982 0.9509696426056229 14.5516373332684203 N
atom 4.6443298139370794 0.9262222204832697 9.5093575058434450 N
atom 4.5702605561708651 0.8955638792578124 4.4249070054251032 N
atom 15.5520232641964959 3.6174324352772680 14.5812056912905774 N
atom 15.5223450690250822 3.4822154535324450 9.5464539410133682 N
atom 0.0197982109757382 3.5874947891143880 4.3867448247839258 N
atom 1.5154756822876323 0.9342754602952268 14.6757849025622722 N
atom 1.5755846484466058 0.9508862186531377 9.5859672571583250 N
atom 1.5431774016308966 0.8079543252962841 4.5919589066469726 N
atom 6.3033888324507750 3.6561216687797922 4.4373951690601849 N
atom 7.7833374392071306 0.8686445152334741 14.6559733860315387 N
atom 7.7673121634507138 0.8898559904811263 9.5471489041594388 N
atom 7.8109466056674481 0.8779840847409046 4.4406262190456829 N
atom 0.0295687116427330 9.0052225226110334 14.5901675138290354 N
atom 15.6098532144542936 9.0464833125796122 9.5695351183815021 N
atom 0.0629964570012921 9.0336318641988260 4.4695279866323094 N
atom 1.5458677646267924 6.2613919259838493 14.6354760913329383 N
atom 1.5663687345724158 6.2033779502645805 9.4992699444726174 N
atom 1.4652059578051759 6.2824106407351294 4.4863944868662600 N
atom 3.1343267441613945 3.6930755221872826 14.5619021883407562 N
atom 10.9352467801729105 11.7521412686117639 4.4439166764712805 N
atom 12.4639655643442744 9.0949367356727446 14.6601963122860113 N
atom 12.5309152000411999 9.0503784084506993 9.4979821313720585 N
atom 12.5471702191857943 9.0914129405234174 4.5030360740384392 N
atom 14.0526413410948940 6.3335781450030808 14.6392995875864873 N
atom 14.0360072751514764 6.3261584438585148 9.5570969475135623 N
atom 13.9587035391617018 6.2669527904210751 4.5825997612059028 N
atom 6.3135976786814059 14.4027158925754701 14.5844712116901079 N
atom 6.2273745644312815 14.4461112664836353 9.4836858111756577 N
atom 6.2306654995466850 14.4384909373477672 4.4376519872956282 N
atom 7.8664175714148659 11.7761043327395303 14.5771877694353567 N
atom 7.8859007762255349 11.7249723878857424 9.5997307427568366 N
atom 12.5898734397957472 14.4850631249813446 14.5562066580086515 N
atom 12.5048277512425798 14.4915577457931466 9.4925725640342353 N
atom 12.5026777903769979 14.4292394538529614 4.5336149678987763 N
atom 14.1034020978135217 11.8185380487545597 14.6584681932252003 N
atom 14.0578225608159801 11.7931686745886939 9.5631920698819517 N
atom 14.1707591239531610 11.7694505058606254 4.4160680906407235 N
atom 9.3462414062997308 14.4338250728667408 14.6085731141075712 N
atom 9.3613798781015127 14.4084434406574378 9.4798102029401168 N
atom 9.3775452940657900 14.4107784417396214 4.4942587386070691 N
atom 10.9556074600104036 11.7025761182382926 14.6280256074488424 N
atom 10.9727908408612276 11.6368746146820019 9.5830594944854699 N
atom 14.0483215662220005 0.8717848153696252 9.5362846392926883 N
atom 14.0502697625880426 0.8720015918425446 4.4903850567559056 N
atom 3.1007146571533326 14.4364553443540178 14.6636722595218529 N
atom 3.1340388662435510 14.4372012434931527 9.4855532562965159 N
atom 3.1409925063435038 14.4172873571325031 4.4558236203364672 N
atom 4.7160687753188251 11.7603426494495764 14.5791099362056809 N
atom 4.6343874741933213 11.7460528934985220 9.5473498004015127 N
atom 4.7024201584596286 11.7062207040427833 4.4176396531070870 N
atom 6.3794675519347166 9.2036196441396836 14.5869924689811299 N
atom 6.2108810657115283 8.9771794596473864 9.5981855912751310 N
atom 6.2107036744470978 9.1071153982067319 4.3800679196792967 N
atom 7.7773085598752862 11.7772766371854445 4.4947560240156585 N
atom 9.3489324547902299 9.0521401328698357 14.6641664926638349 N
atom 9.3761492384936300 9.0964246925729402 9.5594544871966942 N
atom 9.3548971252308846 9.0660187637774001 4.5283275064724249 N
atom 10.8597698134858049 6.3598810528480652 14.7453678116228968 N
atom 10.8648450795367868 6.4101000236881305 9.5128350904431151 N
atom 10.9463201331667239 6.3765620595369521 4.4575299276587268 N
atom 12.4312170080594022 3.6544549634980070 14.7235771069750019 N
atom 12.5155363801424357 3.6251541455852156 9.4876985387715838 N
atom 12.4397848274804552 3.6031540277148046 4.3802854893627039 N
atom 14.0808634845415206 0.8681768436517211 14.6417954111639421 N
atom 6.2202300578954706 7.2703476847735145 1.9442848501324563 N
atom 7.8149410707550171 4.5399351206576997 12.1558603836361971 N
atom 7.7241584524767033 4.4866594042824897 6.9749423817364873 N
atom 7.8590685483472251 4.4985562295873258 1.8283189958413604 N
atom 9.4460343048038276 1.7876168987840155 12.1150925857168676 N
atom 9.3067728076990850 1.7447045133162964 7.0667839984769412 N
atom 9.4625126370313115 1.7985991695189558 1.8917756841838442 N
atom 0.0332130052886433 12.6179875325937960 12.1030210178435151 N
atom 0.0333317510614102 12.6116440500308986 6.9518436975744882 N
atom 0.0300116729810016 12.6297803421555290 1.9352490487675149 N
atom 1.6042385447761369 9.9543421381201664 12.0272491413677685 N
atom 1.5684571457265502 9.9102391868973001 6.9410258004189309 N
atom 1.6757798308134435 15.3517408805235078 12.0881055741273027 N
atom 1.5126589177912781 15.3693916906844343 6.9450423861939132 N
atom 1.5839490816844182 15.4022141455673403 1.9476501118448011 N
atom 3.1342023287460861 12.6861477349826828 12.0699872939449460 N
atom 3.1157071573090440 12.6575601490775238 7.0160153572933766 N
atom 3.0755412626824672 12.5969659665049338 1.9055995521280418 N
atom 4.7193728174936407 9.8518258740455611 12.0458051774173356 N
atom 4.5954279844532016 9.8954992980037115 7.0451156932780350 N
atom 4.7399382270176877 9.9343483796993617 1.8979701800878204 N
atom 6.2190254966420548 7.2429302446165007 12.1436152539438034 N
atom 6.2365668848492897 7.2803112881224283 6.8864590692815248 N
atom 15.5991750518082810 7.1943702920592552 6.9466144642399232 N
atom 15.5909362042510544 7.2020655089249725 1.9242246437764425 N
atom 1.5745541435746029 4.5584633892530926 12.0137573342684885 N
atom 1.5156051773274144 4.4948407714095691 7.0275559064154054 N
atom 1.5854116697512217 4.4924052767738178 1.9125216278760417 N
atom 3.1667391649979484 1.7667388253000829 12.1221108336850332 N
atom 3.1104673305182233 1.7694077683564047 7.0163539706504556 N
atom 3.1603580327457403 1.7785149196577434 1.9785448934730634 N
atom 0.0317036495653534 1.8364827651827689 12.0532926847680848 N
atom 15.5472833270856903 1.7477241769354928 7.0167333434190304 N
atom 15.5544731459867531 1.7983316034479406 1.9704266681708587 N
atom 1.5691853209934368 9.8456856262195860 1.8437594960072736 N
atom 3.1438101840559307 7.0684131422848759 12.0168127520507575 N
atom 3.0710231449018508 7.2717630895879211 7.0052044703545082 N
atom 3.1665048048478011 7.1157450030538527 1.8980899380066478 N
atom 4.7189348333619439 4.4696149582262583 12.0886385670913370 N
atom 4.6283337605739847 4.5656313973893425 7.0272211482532567 N
atom 4.7188623436804491 4.5533607350525767 1.8974396755595282 N
atom 6.2956152190450343 1.8458874535700056 12.1120243453390710 N
atom 6.2737314140310874 1.7651761971067512 6.9210410150371340 N
atom 6.1884303545664352 1.8080080045974587 1.9213671157279122 N
atom 15.5993723902849819 7.1388695359830043 11.9829824682390402 N
atom 14.0363431175835611 9.8873722289389772 1.9508300368948281 N
atom 7.7604755251324997 15.3521236092804045 12.0761141305334458 N
atom 7.7276128647370212 15.4392445182470741 6.9729932578326723 N
atom 7.8591109230512100 15.3800404486746380 1.9328796130673074 N
atom 9.3731654909261728 12.7342051206467648 12.0841329038164123 N
atom 9.3158392429397576 12.6441854215647353 7.0718307430965517 N
atom 9.3184341964198403 12.7230441748782486 2.0084708192337732 N
atom 10.9648256328058782 9.9159856599267737 12.1254635285505010 N
atom 10.9697011179619341 9.9207027562430792 6.9968757667853634 N
atom 10.9040112527588597 9.9037190522880945 1.9526601057681989 N
atom 12.4256242027212682 7.2418379488112441 12.1063950644698881 N
atom 12.4689496390430481 7.2061206162522549 6.9473574311222359 N
atom 14.0745160685451545 15.2980158565722206 12.0194136789492028 N
atom 14.1408701095147951 15.2928487783624956 7.0302372017539838 N
atom 14.0486749246246774 15.4389106903677380 1.8266266303892491 N
atom 10.9224127778459046 15.2775968371811999 12.1202751861902591 N
atom 10.9067391689637905 15.3521592505779108 7.0034461208795626 N
atom 10.9859267709554302 15.3345021529348209 1.9814187302123552 N
atom 12.5117442182893708 12.5803808632075427 11.9601168038234746 N
atom 12.4849458277607681 12.5637225935152941 7.0537053303029191 N
atom 12.4942369019629389 12.6105257795989960 1.9140581675289614 N
atom 14.0412826426993647 9.8634539345266159 12.1864506745074106 N
atom 14.0894424960296654 9.9495094580878920 7.0020841589262535 N
atom 7.8159001087849722 9.8919586386237803 7.0036703831130263 N
atom 7.7381728837672119 10.0195100820644090 1.9762041015688498 N
atom 9.3366507062367692 7.2080088565088607 12.1191327495718806 N
atom 9.3519359360107988 7.2365251573462377 7.0167038865997560 N
atom 9.3566679459842454 7.2342458743329594 1.8448947197257655 N
atom 10.8961140866383950 4.4602968731753263 12.1095242287578557 N
atom 10.9204312949597746 4.4681568752823715 6.9520945412975550 N
atom 10.9096871661326471 4.4913397782641287 1.8636324995604125 N
atom 12.5785314362171583 1.8523265220916125 12.1151211224979178 N
atom 12.4882616033042844 1.8034342379890742 7.0344294974621544 N
atom 12.5062369263260429 1.7433191089265914 2.0783068787514276 N
atom 12.5110256642340723 7.2001204478416811 1.8698860285385510 N
atom 13.9650734810164430 4.4422221839415670 12.1399866880608798 N
atom 13.9816351970716344 4.5213176392086254 6.9897207714569420 N
atom 14.0576538772549871 4.4410513062049688 1.9071053574552257 N
atom 4.7479763524171554 15.3500319791290902 12.0716658197683167 N
atom 4.6899913918617600 15.3297020987815351 7.0280280671211868 N
atom 4.7115149632534417 15.3458560301583091 1.9898465761131185 N
atom 6.1929843017609398 12.6628486671346536 12.0436583846235354 N
atom 6.1962334706793305 12.5590617777202507 6.9520635665948847 N
atom 6.2009517885896521 12.5774567402820168 1.9141549131618181 N
atom 7.8619296091152568 9.8591006008539122 11.9518929951057391 N
