#===============================================================================
# Created using the Atomic Simulation Environment (ASE)

# Thu May 11 09:00:41 2023

#=======================================================
lattice_vector 16.5841519999999996 0.0000000000000000 0.0000000000000000 
lattice_vector 0.0000000000000000 17.2347563186669994 0.0000000000000000 
lattice_vector 0.0000000000000000 0.0000000000000000 16.1779175999999900 
atom 16.5185808645686549 15.3306363149318727 2.6527134726058565 Ga
atom 1.6904595998316565 12.4617223461095268 13.3860319723935728 Ga
atom 1.7633167911620955 12.5256991688955051 8.0920099324656398 Ga
atom 1.6550515495043356 12.5197544827302032 2.6715423252530215 Ga
atom 3.2899253339540810 9.5888449851045348 13.4479600596698674 Ga
atom 3.2910195638506545 9.5853294812771903 8.2136712802944452 Ga
atom 3.3087620601103698 9.5135686710372767 2.8014267797695909 Ga
atom 5.2115932180939648 6.8464999455691409 13.4068614931709309 Ga
atom 4.8843302748457020 6.6211929086014507 8.1629397411431075 Ga
atom 4.9548182342779832 6.8408430483826548 2.7216613497391164 Ga
atom 6.7559304975531989 3.9382276606257798 13.5098560554160709 Ga
atom 6.6770678126045082 3.7774929586256607 8.1720359330679777 Ga
atom 8.3910652736064506 6.7919960274222264 13.3813740170134921 Ga
atom 8.2158630456559596 6.7104195022175857 8.1296404831810918 Ga
atom 8.3449323501076602 6.7329396336347722 2.7782641972294426 Ga
atom 10.0382405735278049 4.0822980581650699 13.4890346149405485 Ga
atom 9.9255621319022680 3.7892929712923942 8.2408145230044596 Ga
atom 9.8530337096061693 3.8238520901107633 2.7028872494173899 Ga
atom 11.6093472174471533 0.8885785327609089 13.4666517492900990 Ga
atom 11.5641739523100462 0.9760927858723653 8.2730061494418976 Ga
atom 11.5533889275764672 0.9212487595391611 2.5727262207038275 Ga
atom 0.0296910842879675 15.3009179431541966 13.4477147292474033 Ga
atom 0.0417301328478201 15.4433167794143280 8.0822691912077413 Ga
atom 3.2278835071720748 3.8190539862077726 8.2198850998061133 Ga
atom 3.4129157988953160 3.9600691221352484 2.5088290087833225 Ga
atom 4.9294286543243890 1.0514577242048855 13.4627785527064638 Ga
atom 4.9032841633486921 1.0236128175766239 8.1732995344317114 Ga
atom 4.9706104885386146 0.9658293220557959 2.7138958482663309 Ga
atom 0.0828156433705076 3.8488084039434947 13.4083266126355873 Ga
atom 0.0140840140424976 3.9097639530026171 8.0638499538981350 Ga
atom 0.0340630645819418 3.9602982130542408 2.5831408891291336 Ga
atom 1.7377461964413581 0.9492517434545796 13.3858460821026508 Ga
atom 1.5823375998731031 1.0422335152007483 8.0990027008265137 Ga
atom 1.5420862977026071 0.9901438061736459 2.5356909417922378 Ga
atom 6.5890856060695624 3.8389127247059749 2.6969050337735978 Ga
atom 8.4106630658910291 1.0312568676200020 13.4349199666311723 Ga
atom 8.2433255151445426 0.9161479087024839 8.0418119163587907 Ga
atom 8.4581233347786906 0.8095219427037704 2.7104971697813034 Ga
atom 0.0854248689965453 9.4597277353516436 13.5761565611406922 Ga
atom 0.0411678101294105 9.4858631869331216 8.1616492116881076 Ga
atom 16.5246051036424788 9.6331014230130378 2.8102661274054936 Ga
atom 1.6868118334249491 6.7027439668384279 13.4434490039024332 Ga
atom 1.6595197920442379 6.6543580786761245 8.1869536320959782 Ga
atom 1.7430885549391342 6.7156226802832188 2.8247357821379286 Ga
atom 3.4259006395881229 4.0212197103139999 13.5316753410656858 Ga
atom 11.5395427174419911 12.4441787091328706 2.7779381672784473 Ga
atom 13.2526716120612438 9.6077238761806480 13.4892318405447256 Ga
atom 13.2437149588402914 9.5067543306138713 8.1497188421756181 Ga
atom 13.1603913751810442 9.5779002466437841 2.8432300999167701 Ga
atom 15.1093510224293528 6.7863738720389124 13.5319251290698688 Ga
atom 14.9679567951363861 6.6796972201595510 7.9947610677860190 Ga
atom 14.9529329699794626 6.6517428496599829 2.7012144290517841 Ga
atom 6.4428953784742546 15.4097869737579174 13.3679375667705784 Ga
atom 6.5763378250955018 15.3063222257982741 8.0702570325907654 Ga
atom 6.5324482889265099 15.1814358480976281 2.5013122113413382 Ga
atom 8.2936572616634372 12.5678523179054906 13.3773480062486740 Ga
atom 8.2599749649978804 12.4471206779625145 8.2194583671712707 Ga
atom 13.2222258440907083 15.3828896303974183 13.5215530638000718 Ga
atom 13.2325151950389035 15.3302294313455931 8.0079920151774804 Ga
atom 13.4120094948327502 15.3687966950374406 2.7397375035822087 Ga
atom 14.8552946214849939 12.4528614179215307 13.3333775641547891 Ga
atom 14.8935577988494767 12.3498416584887760 7.9585015587592691 Ga
atom 14.7911757412788187 12.3724176795138128 2.6460658306003677 Ga
atom 9.9911903871463998 15.3817095257254142 13.4049571157425937 Ga
atom 9.8496502929099972 15.2562200981242615 7.9840883043344464 Ga
atom 9.9405230499145159 15.2360955355096657 2.7016270357591075 Ga
atom 11.6222494709471249 12.5107162063192998 13.3449733561269461 Ga
atom 11.5310079962357452 12.3715071154800107 8.1728149901238343 Ga
atom 14.8205706303352276 0.9630509590643075 8.0695485197356245 Ga
atom 15.0036700462602894 0.9691328525055111 2.7056794433034206 Ga
atom 3.3229269358295301 15.4413343556297988 13.3830940470097879 Ga
atom 3.3081570941959106 15.3911907102728343 8.1700325835827048 Ga
atom 3.1594909964032079 15.4009577591853901 2.7028467542277204 Ga
atom 5.0283843085161797 12.4113728097034723 13.3777811289178139 Ga
atom 4.9182901130798635 12.4140881796532039 8.1284588808461802 Ga
atom 5.0321814733704437 12.4656880981601486 2.5994907527194320 Ga
atom 6.6640018435373296 9.6291659117857495 13.4621199738892798 Ga
atom 6.5987687583493795 9.5192083956328677 8.1062548555898797 Ga
atom 6.5606226765157079 9.5770093047580112 2.6699820848407114 Ga
atom 8.2502349619791620 12.4654510168884229 2.7007812803881284 Ga
atom 9.9668192635146298 9.5843686983336376 13.5435036292073399 Ga
atom 9.9740354749991944 9.5398497346950268 8.1087072724602844 Ga
atom 9.8878121004394295 9.5821393278084948 2.8251845578507364 Ga
atom 11.6557916843720246 6.7284297592006341 13.6312435730145811 Ga
atom 11.5554633692360049 6.6785583853150534 8.1494939849051242 Ga
atom 11.8120401435702043 6.5695420010800012 2.7189723360921514 Ga
atom 13.4017296068064979 3.7945160841202328 13.5533919434036232 Ga
atom 13.3223968875848549 3.8959109317254268 8.0689089341669273 Ga
atom 13.1530442089515383 3.8099950720025832 2.7416009759753361 Ga
atom 14.8723744739614148 1.0594562643514742 13.4384934401364724 Ga
atom 6.7681019741154476 7.6019138481628810 5.4245475621537684 Ga
atom 8.3374228288202161 4.7319746950574428 0.0389070202947822 Ga
atom 8.2684709899825215 4.8175155863594386 10.7940599661507495 Ga
atom 8.3338269578447743 4.6927736190077249 5.3729988957838790 Ga
atom 9.9562325592021832 1.8177170532229447 16.1473836598754836 Ga
atom 9.9509996631558728 1.9232634850231793 10.7647612212040755 Ga
atom 9.9223511257574604 1.8962961232537443 5.2844950136408322 Ga
atom 0.1551561596942462 13.3584183777887571 16.1169393676180235 Ga
atom 16.4963369000186972 13.3959705679502470 10.6281448751759182 Ga
atom 16.5204228852785207 13.3837032314937812 5.4355979535478012 Ga
atom 1.8158520331797854 10.5242065769812605 0.0233664810632648 Ga
atom 1.6220395369680998 10.6236296254034013 10.7971608321279309 Ga
atom 1.6985970177856344 16.2835874514422585 16.1248505583475357 Ga
atom 1.6602053806777968 16.2981824255437360 10.7120458810424033 Ga
atom 1.6543345204518287 16.2779918792788614 5.3383117381023757 Ga
atom 3.3248678611747495 13.3293646134299895 16.1612173319541697 Ga
atom 3.4596239325432685 13.4364851577281463 10.8870434382384733 Ga
atom 3.4116211827330796 13.4801195648478966 5.2819838305915203 Ga
atom 5.0460708433591615 10.4868103802306543 0.0428693370725938 Ga
atom 4.9822441098630152 10.4593322353675919 10.8867701894512710 Ga
atom 4.9332494564091345 10.4641248820895711 5.4623142450957047 Ga
atom 6.6309687417527599 7.6609130612003700 0.0188530724932262 Ga
atom 6.7228887749715183 7.6578203212316440 10.7191303974541032 Ga
atom 0.0437713193810112 7.5752378176167321 10.7321557878089280 Ga
atom 16.5028009409210625 7.5968209176201711 5.4048866411750041 Ga
atom 1.6071041302810831 4.8518226797262614 16.0750309934042512 Ga
atom 1.6327013178522429 4.7004573159462391 10.7860058764013438 Ga
atom 1.5738458713337748 4.8103005169768860 5.3912882038483332 Ga
atom 3.2588401545692927 1.9156181033299773 16.1734236634021116 Ga
atom 3.4030983591004640 1.8814639023408779 10.8528650116595831 Ga
atom 3.2628293076673551 2.0682301405557091 5.2845843053248167 Ga
atom 16.4463772223077136 2.0725233529686284 16.0658311006970465 Ga
atom 0.0517237818519307 1.9732855512174456 10.7166321529915791 Ga
atom 0.0916914338683369 1.9370216718441517 5.3616368124172915 Ga
atom 1.6574336921689716 10.5989744344046741 5.3597083816940687 Ga
atom 3.3115088778783930 7.5482012381761701 16.0862180799384866 Ga
atom 3.3784246233443049 7.6896904032247511 10.7998742747066299 Ga
atom 3.2680017343585726 7.5483000047465234 5.5038130713911269 Ga
atom 5.0286974362745616 4.8596561666652001 16.1126404588268741 Ga
atom 4.8975104554628102 4.6797016905283781 10.7710771780998673 Ga
atom 4.9500078855003391 4.7000928742022561 5.5162046808038987 Ga
atom 6.6373817501563304 1.8555536169848523 16.0600280571010252 Ga
atom 6.6823435757597878 1.9408337869450709 10.9169139380522768 Ga
atom 6.7155099812301140 1.8824053904561380 5.3268478305988562 Ga
atom 16.4864660547795019 7.6129887369036444 0.1477746285485537 Ga
atom 14.9346408393983854 10.5261478401233912 5.4418650840526492 Ga
atom 8.3245228708685453 16.0873471520900289 16.0254516940216760 Ga
atom 8.3007791419303842 16.3217316974133873 10.7215998544380771 Ga
atom 8.2669932689884540 16.2408140724263426 5.2702934656760174 Ga
atom 9.9691692964559522 13.3355223881021594 16.1006680308790706 Ga
atom 9.9534144002989180 13.5198783116809427 10.7401353987552373 Ga
atom 9.8781582449575058 13.4003206614043382 5.5404135467252891 Ga
atom 11.7018874205866386 10.5924117662692172 0.0848740502084471 Ga
atom 11.5098989787445820 10.5289544549958016 10.9073116147328335 Ga
atom 11.5876341537476879 10.5045115356616314 5.5929203522675408 Ga
atom 13.2119164986908384 7.6833470721380666 0.0237101867645228 Ga
atom 13.3591153357577710 7.6118942792092934 10.7995122545357152 Ga
atom 15.0371245718592874 16.1873897352738894 16.0399557127186299 Ga
atom 14.8064645026577448 16.1659120023267739 10.7781283322794970 Ga
atom 15.0278364438282850 16.3244394681883414 5.3637068403204653 Ga
atom 11.6163856804706924 16.1691643974087427 0.0589846383751410 Ga
atom 11.5450517888778510 16.1645217164620583 10.7269920462597135 Ga
atom 11.4676905849754416 16.1904821188699088 5.3921584302697676 Ga
atom 13.2952396562783441 13.3770701920574133 0.0046027226762934 Ga
atom 13.2317542749917862 13.4014628328949019 10.6383685825542837 Ga
atom 13.1643698089648638 13.3723427149111309 5.3548097183953001 Ga
atom 15.0089261469285340 10.6343438619251458 16.1092399260255341 Ga
atom 14.8895437076127859 10.5892632368905151 10.8124668341228798 Ga
atom 8.2868100234637669 10.3824314949413914 10.6085927621380822 Ga
atom 8.2235525274166985 10.6513222147053721 5.4594247727559999 Ga
atom 9.8652928356167671 7.4881298345514669 0.0499772619173503 Ga
atom 10.1509031384111168 7.6885630506769607 10.9454247750629392 Ga
atom 9.9995973568054861 7.6644488213466984 5.5084606902262871 Ga
atom 11.5319005685535902 4.6588725629096475 16.1545147054332396 Ga
atom 11.6090350234597821 4.8697561957283861 10.8994845661655386 Ga
atom 11.5408099394238342 4.7300492311532727 5.3594543260854568 Ga
atom 13.2432408549625436 1.8607823079542887 0.0332706488827027 Ga
atom 13.3378709330367684 1.8797994849964392 10.7896842338359011 Ga
atom 13.2539990145460322 1.8436284479006100 5.3545269610698689 Ga
atom 13.2261791111993183 7.5828143251311202 5.5309543880453074 Ga
atom 14.8463956796265659 4.8124243356892880 0.0660811197260410 Ga
atom 14.8982374893721570 4.7364242982480276 10.9138724713148445 Ga
atom 14.8812907083305621 4.6561708083065874 5.4270152145067270 Ga
atom 4.9513376368113464 16.2403004125792343 0.0354611060505964 Ga
atom 4.9031053208147419 16.3171460410235838 10.7355518118074826 Ga
atom 8.2767148534013533 10.4606454344594404 16.1230082178472429 Ga
atom 6.6033875719755262 13.3559852585467826 5.4132344397830918 Ga
atom 6.7221057359552887 13.5141676433778564 10.8144056730425344 Ga
atom 6.6700988159398520 13.3972088108098095 16.0922425998101488 Ga
atom 5.0909844247566340 16.4300574948808347 5.3999683259229636 Ga
atom 3.3552442751871476 9.5369831070978215 10.2356158142104832 N
atom 3.4056628701900999 9.5748684403871405 15.4626811292418296 N
atom 1.6766703245187284 12.5423322014718046 4.7106742459508570 N
atom 1.7046367833259863 12.5864825220340286 10.2425498304301890 N
atom 1.7212266671750955 12.3069477151841316 15.5154886591805532 N
atom 0.0696254019140716 15.2778616420668989 4.6270105056743267 N
atom 3.3198974033501099 9.3966574906653229 4.7706318363253759 N
atom 5.0607202959122368 6.8034252962679531 15.4941501647830826 N
atom 4.9912009549531531 6.6923581636802485 10.1141198127876972 N
atom 4.9634935239003921 6.6493485549956963 4.8840625790850902 N
atom 6.7301770642419436 3.8257750383213227 15.5090228311989211 N
atom 6.6151345261576342 3.8465796654534046 10.1779645333986597 N
atom 8.2375521567021650 6.6708089902374050 15.4217003963032813 N
atom 8.5243921964156133 6.8195388178607974 10.0675086581509987 N
atom 8.3430970180121697 6.6872466851675876 4.8673803222902619 N
atom 9.9469033539174312 3.7891427299966001 15.5792904999069037 N
atom 10.0470750543566041 3.9360679189882255 10.2626708494863710 N
atom 9.9514149436408488 3.8899346861703887 4.7735098032507306 N
atom 11.5212200873862862 0.8788060171142899 15.4995549015640073 N
atom 11.6874560251206550 0.8621955121210648 10.1584366523932239 N
atom 11.5435247763428244 0.9389559473557997 4.6893247568930425 N
atom 0.0828228930585891 15.2725916251904703 15.5281498528945274 N
atom 16.5820611622610379 15.4229054626034419 10.1052780128792641 N
atom 3.1684468354668436 3.6894575135524073 10.1249131464144604 N
atom 3.2533912296824887 3.8933159181327754 4.6282921858308868 N
atom 4.9596235738141754 0.8937425050308654 15.4222428037597368 N
atom 5.0390466741392794 0.9621866249746938 10.1153323680772260 N
atom 4.9613155574048715 1.1005152733869106 4.6421165250311747 N
atom 16.5348853880495312 3.8890594750790499 15.4962238747870966 N
atom 16.5020361440970653 3.8749172780147618 10.0596107330413194 N
atom 0.0141137871138557 3.8882605663163385 4.7556172025660501 N
atom 1.5909934056763437 1.0551857304101975 15.5187889041965974 N
atom 1.7355657702303509 0.9546990295123928 10.1838735641796205 N
atom 1.6792005607445670 0.9725503214816624 4.6169632973482670 N
atom 6.5304901321053928 3.8740412493975827 4.6872865708539200 N
atom 8.2849907276082551 0.8101860856620242 15.4897975473421390 N
atom 8.2559475233649273 0.9323919798889624 10.0322498490622554 N
atom 8.3771479831807358 0.8637966779754781 4.7614401623054308 N
atom 0.1086568703709399 9.5330330267302124 15.6062719040354398 N
atom 16.5439677730523478 9.6116849667127759 10.1756529882465401 N
atom 0.0002692910504987 9.5654878804982850 4.8475798984548701 N
atom 1.6686394439127727 6.6834935813423346 15.4002317952584686 N
atom 1.7365259296296158 6.6554797751760475 10.0602303297676272 N
atom 1.7014468740578899 6.6672258634100956 4.6275360745181890 N
atom 3.2396339157537728 3.8395706225396298 15.5979253841042365 N
atom 11.5279620067803901 12.4652652601055589 4.8276339933832695 N
atom 13.2121041505644712 9.5699270022932232 15.5349011101252685 N
atom 13.2145369423867240 9.6499549475434403 10.1962204988645642 N
atom 13.2447245057122007 9.5441874851629844 4.8510294844096284 N
atom 14.7547042086140401 6.7233743654775431 15.6607001212083521 N
atom 14.9697733429199662 6.6117713709885253 10.0842621450727776 N
atom 14.9193983990260151 6.6003742958429186 4.7916585604816895 N
atom 6.6124054881450380 15.3409548566652791 15.3343990190473942 N
atom 6.6084771343845707 15.2188812643635867 10.0000238073043057 N
atom 6.6180178407621844 15.2692224267050509 4.6017165624921228 N
atom 8.3380097609697437 12.4211407762713186 15.3990554908013593 N
atom 8.3284285509186891 12.3901557712534505 10.1900542434323800 N
atom 13.2694993447581098 15.2632168722966473 15.5925184610701049 N
atom 13.2482348483289520 15.3418398311995396 10.1080278009758526 N
atom 13.2343709757148780 15.4405804480572542 4.7394850312382486 N
atom 14.9523321118752062 12.4540655681786152 15.4546375449034183 N
atom 14.9063382501353043 12.4592623442016741 10.0872805815151025 N
atom 14.8777784044043315 12.4898122439050638 4.6706353765154018 N
atom 9.9532153659020146 15.3221953501736454 15.4329916299770069 N
atom 9.8706741891829015 15.2396153691562457 10.0728861752294847 N
atom 9.8821936888637101 15.3490020471981676 4.7044080239130892 N
atom 11.5824047873210407 12.4307136328098906 15.3459740657551666 N
atom 11.5915899530785254 12.5494413882589022 10.3266801312453556 N
atom 14.9374168962730156 0.9071523665804607 10.1705873160749931 N
atom 14.9584674242997799 0.9550779529887330 4.6044033115465783 N
atom 3.2833750622923259 15.3659111327535491 15.5200130453500265 N
atom 3.3170551477348522 15.2666176143516736 10.1311665306338057 N
atom 3.3327101078741914 15.4481850053874545 4.8141654031409020 N
atom 5.0925676893262519 12.3969189975292320 15.3668917274496835 N
atom 5.0656267812471745 12.2957813931191247 10.1772811234741543 N
atom 5.0661825075219422 12.3581851315958602 4.7612815249638585 N
atom 6.6966137692697272 9.5483991485050517 15.5131036538972005 N
atom 6.5763833257591848 9.4948813512685799 10.0698742254807936 N
atom 6.5798095972845907 9.6058709078035047 4.7479640332820754 N
atom 8.2938692614601557 12.5483770160568859 4.6562460471414999 N
atom 9.9781017905089957 9.4731359050317376 15.5444691010987981 N
atom 9.9103219908826041 9.5730100812000316 10.1418648013699606 N
atom 9.8603420259257479 9.5504484839847841 4.7272176636609267 N
atom 11.5610311027958570 6.6204071122005947 15.4975134558935377 N
atom 11.6639045537937154 6.7969727134584383 10.0963554355482152 N
atom 11.6166735741321556 6.6905300259857974 4.7344534351890211 N
atom 13.2525783310597607 3.7562152084272262 15.6085482471828030 N
atom 13.2578934656159504 3.8448117969403675 10.1624168858593489 N
atom 13.2456171619806824 3.7863518941807688 4.7699571653070247 N
atom 14.7893528872858653 0.9073796824419192 15.4452589798964546 N
atom 6.6962174132305856 7.7090023727006267 2.0077672519816780 N
atom 8.3401590496602278 4.9496170180957737 12.7448933121714241 N
atom 8.2717888042598915 4.8779638521462267 7.4619006878261649 N
atom 8.2525858757562069 4.8151870571958142 1.9930104710857377 N
atom 9.8664694066456189 1.9717090581448511 12.8649113518427889 N
atom 9.9211164684846462 1.7737598669595773 7.4605685405820434 N
atom 9.9839095104375115 1.9296734108844371 2.0472474991716632 N
atom 16.5076796399191181 13.4685819791695618 12.8165381005810133 N
atom 16.5339775208331581 13.3943774684314381 7.5053898198909463 N
atom 0.0202510769633896 13.4284665101493257 1.9714611518425911 N
atom 1.5594744877341264 10.5575241942714495 12.8914401627640398 N
atom 1.6949799010791069 10.5290550546570767 7.4755560255187561 N
atom 1.6178786092688278 16.2496617586590091 12.8343836243269322 N
atom 1.6135121830756851 16.4197841392377484 7.4118976488805917 N
atom 1.5428757198430183 16.3881914800616322 2.1057949165710972 N
atom 3.3864675474989259 13.5093907013368995 12.8917158477254521 N
atom 3.3455457645666229 13.3818713287973541 7.3407604998270681 N
atom 3.3344089835039568 13.5326044489149648 2.0798550001257103 N
atom 4.9850976796939106 10.5447773414028863 12.8474379574476050 N
atom 4.8818454857533862 10.5055560536909898 7.5287900510989321 N
atom 4.8883184354159335 10.4449861479565875 2.0507305081065716 N
atom 6.6631735684212439 7.9006117776318323 12.7589755025102090 N
atom 6.6054616367781209 7.6930286145472602 7.4684090732412738 N
atom 0.0261013144442638 7.6192961041116023 7.4927520120602784 N
atom 16.5789643622325258 7.7476036089167870 2.1923974676219879 N
atom 1.7799427662804526 4.8547919047379038 12.8245598999818107 N
atom 1.7246351448221775 4.9346338245872756 7.5270241618394946 N
atom 1.7361258172074083 4.9093342748810276 1.9035981919192557 N
atom 3.3654274618513016 2.0769887107253755 12.8866782886583842 N
atom 3.2282920813647986 1.9982574024873638 7.3747956252132258 N
atom 3.2116467677618257 1.9283317812373975 1.9747534227429899 N
atom 16.5173786436932843 1.9351807302586141 12.7987081116295105 N
atom 16.4069273651113612 1.9353439475803804 7.3902168352560942 N
atom 16.5032081265705024 2.0777202164377386 2.0066094556018368 N
atom 1.6641956966544413 10.4799899669242169 1.9973897610946951 N
atom 3.3120188473129226 7.7686406718342154 12.8272146995677083 N
atom 3.2843756966935187 7.6390368382592362 7.4858372226202112 N
atom 3.2823339733671495 7.6095664114685659 2.0269285684944727 N
atom 5.0649383548467952 4.8656223653717428 12.8684131001470945 N
atom 4.9709094557695535 4.7128284036061796 7.4962544332227807 N
atom 5.0478199118085580 4.9925870452164638 1.8950248970391377 N
atom 6.6006490187271103 1.9478803647095659 12.8012060585592593 N
atom 6.5889396005247391 1.8680562362464037 7.4280118663702428 N
atom 6.7218462205026741 1.8197091992326131 1.9440190265273141 N
atom 0.0561845033939899 7.6376810911195241 12.8233003532978191 N
atom 14.8404436141994793 10.5065245796287119 2.0319745633546713 N
atom 8.2261209680090417 16.3140786522399459 12.7838132765072192 N
atom 8.2097475185865925 16.3293230684625499 7.4141365179270462 N
atom 8.2535509084889700 16.1424771864764232 1.9874951681916431 N
atom 10.0695769102020254 13.4991719803528802 12.7600049978586334 N
atom 9.8649613871307427 13.3667619114539509 7.4331671816704876 N
atom 9.8473348616726106 13.2688168781212550 1.9650692767995497 N
atom 11.6095895490038021 10.5527223113242954 12.8713599175420956 N
atom 11.5911915680000632 10.4761323123360217 7.5009618318453484 N
atom 11.6141784262474790 10.5649749926898497 2.1231664655151037 N
atom 13.4107556591490393 7.5808551020065318 12.8433909536032811 N
atom 13.3703601611157907 7.6064479380197643 7.4864105342359331 N
atom 14.9978146254977354 16.3482003517959740 12.8160608886908740 N
atom 14.7991671102316911 16.2679842862363238 7.3188132186317132 N
atom 15.0039590196613286 16.3050172032009115 1.8696891676990448 N
atom 11.6954973912572129 16.2299142624655914 12.7719903178225032 N
atom 11.5231438955595511 16.1892898725549159 7.4677607694947037 N
atom 11.5927305780582515 16.0675690399779363 2.0583466102433756 N
atom 13.1995168153265396 13.5142219218208819 12.7517262968553577 N
atom 13.1762130993378186 13.3582126851975396 7.4900365493068302 N
atom 13.2288717987225866 13.4465071219455243 1.9992895324788307 N
atom 14.9450222711145049 10.4564185765727284 12.8163490632381212 N
atom 14.9327314899036079 10.4462953010492718 7.4896776281412478 N
atom 8.2660296362808463 10.5560455930584460 7.4032833797823407 N
atom 8.1728235806682754 10.5608681633530850 2.0899094396114335 N
atom 10.0018072589142761 7.6837937161062166 12.8959837357862153 N
atom 10.0106124835587718 7.6944259858571060 7.4294449893804888 N
atom 10.0947420165378965 7.5644852124879405 2.0577746893186597 N
atom 11.7050312946261190 4.8737211478470952 12.9120327087336566 N
atom 11.6586121029311762 4.7681037338250238 7.3974952039546755 N
atom 11.6453866296861346 4.7006466715137432 2.0498268572894189 N
atom 13.1914565393882786 1.9994339695369145 12.7784711712593033 N
atom 13.1812046323298517 1.9793912518151806 7.3898482372262295 N
atom 13.1788143772320669 1.9395000254797823 2.0166974158072457 N
atom 13.2009612422352660 7.6640427638081565 2.0252101945202985 N
atom 14.9785147786876927 4.8579332727718514 12.9067655459151123 N
atom 14.9606177746239233 4.7871158748186398 7.3860789784178271 N
atom 14.9062608748722774 4.8427261617280521 1.9896197304186094 N
atom 4.8746412286076852 16.3734116733390529 12.7480371671222112 N
atom 4.8808866454370072 16.3288116213439238 7.3654502025445145 N
atom 4.9112589233353621 16.3367332096919817 2.0335255922195667 N
atom 6.7197537055613203 13.4516312277373142 12.7306336951849701 N
atom 6.6745321355144283 13.3633164581652633 7.3470246252418212 N
atom 6.6358954634917025 13.3518871150691023 1.8467480641409435 N
atom 8.2482048964446300 10.5495100213501711 12.7983654134761800 N
