#===============================================================================
# Created using the Atomic Simulation Environment (ASE)

# Thu May 11 08:59:08 2023

#=======================================================
lattice_vector 15.6273739999999997 0.0000000000000000 0.0000000000000000 
lattice_vector 0.0000000000000000 16.2404434541285205 0.0000000000000000 
lattice_vector 0.0000000000000000 0.0000000000000000 15.2445761999999903 
atom 15.6137976479506371 14.3576006981659923 2.6399126274789619 Ga
atom 1.5677334373199563 11.7806671721474299 12.6527426346346559 Ga
atom 1.5040819789883124 11.7184698017348872 7.6705783861816652 Ga
atom 1.4945671723581391 11.7003540276332068 2.5222442450824825 Ga
atom 3.1175273845597662 9.0233266846195974 12.7193585122355586 Ga
atom 3.1479242910838137 9.0220077437951947 7.6460027604805161 Ga
atom 3.1251588662848060 9.0015345764364945 2.5279692728864194 Ga
atom 4.6630782511665929 6.3348591842693489 12.6689655805630856 Ga
atom 4.6911983725858502 6.3175693979220640 7.6381025737476858 Ga
atom 4.7458549346146661 6.3144578057269403 2.5822313116906419 Ga
atom 6.2111982108043406 3.5629302044252831 12.6519844625352000 Ga
atom 6.3095276540077023 3.6375813382698148 7.6500222655073848 Ga
atom 7.8114411940311852 6.2812397664747976 12.7183119694232154 Ga
atom 7.8261102750972338 6.3096733919161592 7.5876455791258497 Ga
atom 7.9003470684761474 6.3543962015392710 2.5336484000870030 Ga
atom 9.3588073684278097 3.6455813180497811 12.7051078771127113 Ga
atom 9.3752560640023237 3.6192117154028662 7.6587473420296890 Ga
atom 9.3507170738572327 3.6237004458351891 2.5309853109911917 Ga
atom 10.9494937285137315 0.9644793072484721 12.6692305022136882 Ga
atom 10.8719467001076637 0.8442164141410992 7.6270825152357560 Ga
atom 10.9367221718906897 0.9291219505354048 2.5980308892351509 Ga
atom 0.0412679612636425 14.4005964543043881 12.7225926095395803 Ga
atom 0.0755931551670110 14.4068645242143081 7.6554957625839588 Ga
atom 3.1994161871868032 3.6248510944463512 7.5932473667300711 Ga
atom 3.1085571177022189 3.6130195078634513 2.4984667625816819 Ga
atom 4.6994979912762460 0.8822631432490866 12.6815099217795098 Ga
atom 4.7511478749048939 0.9631441246838143 7.6024079080826592 Ga
atom 4.6363646023197829 0.8933550310710179 2.5579286516491191 Ga
atom 0.0479408258928299 3.5739537231213365 12.7427365927984138 Ga
atom 0.0678326602399178 3.6118031458267388 7.6003790009888137 Ga
atom 0.0167651559256485 3.5829052123651168 2.5015873271474964 Ga
atom 1.5608101229767217 0.9173125622086494 12.6655255948141861 Ga
atom 1.6401942045600550 0.8923208281055290 7.6208575280222730 Ga
atom 1.5189518749866808 0.8739124327619775 2.5371918825349691 Ga
atom 6.2107979651727963 3.6870595708608151 2.5619817302093728 Ga
atom 7.8365650393345794 0.9269335440176028 12.6609788694139311 Ga
atom 7.8271341332492002 0.9573752022022241 7.6108037980620811 Ga
atom 7.7798974028983610 0.9347624263819484 2.5379838781450168 Ga
atom 15.6093794938397004 8.9923825687384955 12.7115891360586755 Ga
atom 0.0528377856269334 9.0000480613654670 7.6382451727118355 Ga
atom 0.0481279591064076 9.0480239668194091 2.5614926801879307 Ga
atom 1.5223023638521931 6.3366614890699307 12.6983555065212279 Ga
atom 1.5166254735785960 6.2762372452188711 7.5636868604419769 Ga
atom 1.5806102860872957 6.3530531356267375 2.5055497122852173 Ga
atom 3.0845487322779972 3.5849808836614789 12.6462466245806429 Ga
atom 10.8837053027358444 11.7632091606807219 2.4832281839354735 Ga
atom 12.4829304314469685 9.0738595895693024 12.7525286924731382 Ga
atom 12.5786907337385419 9.0551284460310200 7.7062804438105870 Ga
atom 12.4469867033073385 9.0399031331548727 2.5243695831044226 Ga
atom 14.0885983929912282 6.3429674970942518 12.6819152702317979 Ga
atom 14.0707730035958551 6.3407387027261120 7.6549656410693929 Ga
atom 14.0758862653374663 6.2645832500931924 2.5631266702937294 Ga
atom 6.1942731444763925 14.4139309533666307 12.7567780491625182 Ga
atom 6.2665188570505039 14.4561553692962743 7.5946713806284674 Ga
atom 6.2692308342608145 14.3615371482257963 2.5586702173789573 Ga
atom 7.7333469992861392 11.7185637148822863 12.7484801337631044 Ga
atom 7.7958218434627033 11.7500988339542687 7.5946787232476511 Ga
atom 12.5559152346725593 14.4120270126343542 12.7244654960673973 Ga
atom 12.5255259210361878 14.3816370777995957 7.6499243097094576 Ga
atom 12.4420592497470803 14.4171292653024121 2.4880462432701904 Ga
atom 14.0988284530274779 11.6752171290605027 12.7488627057442621 Ga
atom 14.0370328127237247 11.6962771110158723 7.6412282430369780 Ga
atom 14.0461970894818524 11.7663831563775432 2.4872535670157316 Ga
atom 9.4425335032116831 14.5075846368950749 12.6784272617471849 Ga
atom 9.3941497006493488 14.4124172180958006 7.6064349652710543 Ga
atom 9.3300156710676472 14.4424613772428039 2.4737073186046818 Ga
atom 10.8429166205941740 11.7901086514843936 12.7086702503733342 Ga
atom 10.9129736787562148 11.7171048066161152 7.5775204847783506 Ga
atom 14.0659092296102841 0.9226878816853102 7.5190229025722317 Ga
atom 14.0225206340853692 0.8317548259489587 2.5155379390700445 Ga
atom 3.1058548924011604 14.4646380559962306 12.7846373198544878 Ga
atom 3.1814267517489991 14.4367997667607018 7.6560941259193172 Ga
atom 3.1079418548256830 14.4018002995143171 2.5735253043061017 Ga
atom 4.6963168807891540 11.7032171576321193 12.6960448738583391 Ga
atom 4.7302196289028613 11.7631635394850367 7.6837657980589089 Ga
atom 4.6357431358511532 11.6783614473623487 2.5273920057390837 Ga
atom 6.2003115480438415 9.0358080794462605 12.6465291273506519 Ga
atom 6.2702900968664892 8.9818079859679880 7.6016019733525848 Ga
atom 6.2041768636950687 9.0229706089424813 2.5955919784840358 Ga
atom 7.7817365037668553 11.6945567087479301 2.5797312602568185 Ga
atom 9.3318308912103820 9.0124376084814308 12.6759348482291330 Ga
atom 9.3869245175822620 9.0123664716263736 7.5164988812207838 Ga
atom 9.3880750520976921 9.0524409238896855 2.5492204810872656 Ga
atom 10.9323818635399057 6.4090499880612946 12.7432063875680743 Ga
atom 10.9923546219063741 6.3726344535224468 7.6583393403474869 Ga
atom 10.9559115123156570 6.3074456531623886 2.5555227913620810 Ga
atom 12.5299500130154140 3.6222352064197141 12.7220211501317042 Ga
atom 12.5013760386503439 3.6307717213433897 7.6660516867652726 Ga
atom 12.4612779778761062 3.5452345528943265 2.5555798848116464 Ga
atom 14.0283158987764143 0.9052621311058044 12.6562673549700140 Ga
atom 6.2589686124100199 7.2351657646188627 5.0243838511968502 Ga
atom 7.8674152262312083 4.4996177433172848 15.1325973948321106 Ga
atom 7.8094314623455716 4.5471037447065967 10.1829697756822597 Ga
atom 7.7596299907947532 4.5664483315609887 5.0712159625604141 Ga
atom 9.2750717790878241 1.8560355234856187 0.0349578697938656 Ga
atom 9.3644389932682834 1.7609389840455971 10.1571636294363241 Ga
atom 9.3300735152569576 1.8183612260587023 5.1138416439202325 Ga
atom 15.5652043207320823 12.6054392886170010 0.0075115049857568 Ga
atom 15.5821519234587562 12.6861559834899467 10.1952782533181772 Ga
atom 15.6271912540397775 12.6271999003036424 5.1333702641368895 Ga
atom 1.5627515040757163 9.9583871798404893 15.2081268792993356 Ga
atom 1.5457543367575086 9.9827546007997903 10.1751006846072922 Ga
atom 1.5341766530782548 15.3683868608056873 0.0713438517012481 Ga
atom 1.5706816640355574 15.2619199866732931 10.2467810887530408 Ga
atom 1.5205394322647972 15.2989597153685626 5.0790535740337184 Ga
atom 3.0987017032905730 12.6004778093802106 0.0162182794147166 Ga
atom 3.1411162562745920 12.5974863100678114 10.2275489879339609 Ga
atom 3.1100072506814649 12.6155390207573515 5.1309488676346939 Ga
atom 4.6573620979642314 9.8547738436483208 15.2059128699576469 Ga
atom 4.7187434852130625 9.9210589619158522 10.1228480729140138 Ga
atom 4.7155397955604341 9.9809447818212984 5.2036188848945129 Ga
atom 6.2140183028340035 7.1646933286725663 15.2348016507821917 Ga
atom 6.2829967316744106 7.2244354333503882 10.1920384412769796 Ga
atom 15.6187876475754202 7.1721183882975330 10.1740791359700360 Ga
atom 0.0121181951791522 7.1238796208360222 5.0278716568785962 Ga
atom 1.5858935315020908 4.5508273090235036 0.0248776400235962 Ga
atom 1.5893764458508384 4.5067974856351602 10.1502064153812075 Ga
atom 1.5942248521912417 4.4928314111757084 5.0314243642560736 Ga
atom 3.1212643024471198 1.7559259714526425 0.0070347626323594 Ga
atom 3.1303932073871228 1.7651188129406583 10.1315929840001360 Ga
atom 3.1904387614512610 1.7801850155509413 5.0920722213223888 Ga
atom 0.0333909111603123 1.7868688235123436 15.2056322024907065 Ga
atom 0.0142237348839285 1.8025675580868272 10.1051627905539725 Ga
atom 15.5977835552665098 1.8075460778008752 5.0578670287913754 Ga
atom 1.6589017786464602 9.8991228497898227 5.0981118524941911 Ga
atom 3.1449282995453998 7.2391325573731518 0.0207852097468374 Ga
atom 3.1225155280310135 7.2815751727575249 10.0735499876154222 Ga
atom 3.1708151291851907 7.1671953641087827 5.1873154970066926 Ga
atom 4.6976278061372119 4.5336226149204624 15.2207879803976631 Ga
atom 4.5748544031751042 4.5063790386856679 10.1728807817484217 Ga
atom 4.7070448025024927 4.4506980335718751 5.0643032336927414 Ga
atom 6.2260495085191074 1.8430349638916137 15.2340628430442173 Ga
atom 6.2519989486427399 1.8748963492617681 10.1117499202780134 Ga
atom 6.1925188811161247 1.8913215672765968 5.1460257301922629 Ga
atom 0.0035599171358409 7.2824543551098655 0.0742028832776627 Ga
atom 14.0960384117157211 9.9239763025280059 5.0736877084630425 Ga
atom 7.7816196989026878 15.2848054978014289 0.0197022147459846 Ga
atom 7.8330739525512083 15.3464772941702368 10.1453614321289489 Ga
atom 7.8174662744878063 15.3376241849388055 5.1013719427166810 Ga
atom 9.3182389503991345 12.6250369890537115 15.1924807080540969 Ga
atom 9.3846773802077514 12.6178476794595777 10.1690026142872707 Ga
atom 9.4106707059509880 12.7005100395786634 5.0506567706147232 Ga
atom 10.8772055692389173 9.9467673123055427 15.1765550117806693 Ga
atom 10.9093514799950864 9.9504566635772651 10.1285870350234362 Ga
atom 10.9889923115745596 9.9598568093153101 5.0971473280516104 Ga
atom 12.5279745492749210 7.2114225457621073 0.0417910007287803 Ga
atom 12.4985630569856827 7.2287619992864300 10.1926207512482581 Ga
atom 14.1223739685243732 15.3894484530768683 0.0161876584103001 Ga
atom 14.0553850778286371 15.3929439842470845 10.1423212656419270 Ga
atom 14.0288414789618034 15.3011184713813435 5.0635963125719803 Ga
atom 10.9529400534632959 15.3629721861454751 15.2077694910921952 Ga
atom 10.9613084608321731 15.2866612105784316 10.1515022014797278 Ga
atom 10.9171987794342176 15.3235229231878378 5.0831751808271193 Ga
atom 12.4763177866198536 12.6210227775097916 0.0277406664581255 Ga
atom 12.5230141719721821 12.6190820574817675 10.1616523046756768 Ga
atom 12.5408516666411902 12.6420324209887429 5.1229187277370123 Ga
atom 13.9991234468397359 9.9628628561515811 0.0421369628774203 Ga
atom 14.1149541197677078 9.8808928212942089 10.2338092136202672 Ga
atom 7.8336781846226478 9.9965448886229638 10.1104474596297766 Ga
atom 7.7863933872046420 9.9351760257633259 5.0503554404987359 Ga
atom 9.2981413633979031 7.1634873527227896 15.1550432365297603 Ga
atom 9.4394417620442255 7.1961192720112610 10.0991045089049827 Ga
atom 9.3722961938724705 7.2348660457529759 5.0480675065549105 Ga
atom 11.0315012004620776 4.4792182345372931 15.1971200348892630 Ga
atom 10.9201685897172354 4.4676967966721257 10.1721079417054163 Ga
atom 10.9647397575149999 4.5439470303698375 5.1066985205777966 Ga
atom 12.4770309954275174 1.8029289301106810 15.1760378171429178 Ga
atom 12.5042410888037896 1.8269104371686187 10.1191788560928355 Ga
atom 12.4865165497606068 1.8185954350660127 5.1189973127690349 Ga
atom 12.5150830745658688 7.2216105740180252 5.0792321226592891 Ga
atom 14.0511367571127437 4.4725335360066509 0.0109013411665307 Ga
atom 14.0655870424655838 4.5354368425240503 10.1279952790397036 Ga
atom 14.0746692687802799 4.4825497262356295 5.0539925756329520 Ga
atom 4.6792861319807333 15.4059815828595319 0.0542848288593356 Ga
atom 4.7579248410481343 15.3180571618695698 10.2414023233757998 Ga
atom 7.7943881691046721 9.8864709349584796 0.0268963797206682 Ga
atom 6.3497692829210148 12.6118532505094194 5.0769892607073484 Ga
atom 6.2664176584221245 12.6272863946017697 10.1427332558135195 Ga
atom 6.2499319066061005 12.6090571860145264 0.0439509762495739 Ga
atom 4.7088939016089109 15.3313256704524150 5.0452291915977616 Ga
atom 3.1698723186191482 9.0784821164959943 9.5570134269621629 N
atom 3.1160389660635173 9.0095265555568780 14.5728811254447042 N
atom 1.6251115760347117 11.7270385779957884 4.4174059898168156 N
atom 1.5138269289403863 11.7373964482407693 9.6100118024383523 N
atom 1.5099928694672200 11.7974198459066102 14.6008736756948814 N
atom 15.6038679468923274 14.3593208966749977 4.4158766159838025 N
atom 3.1942615413285673 8.9523465267626143 4.4999780635351767 N
atom 4.7292033380046750 6.3559197069481721 14.5918063144971395 N
atom 4.6704313724727449 6.4207753759202850 9.5429730703311151 N
atom 4.5701716453171262 6.3120073895654913 4.4351317094800597 N
atom 6.1718949616494436 3.5605702533854684 14.6271567886419351 N
atom 6.2451995270696363 3.6730386036285947 9.5555314913844569 N
atom 7.8098408522948501 6.3244204889010973 14.6273555022331223 N
atom 7.8457310201539174 6.2518845406730126 9.5777680809509143 N
atom 7.7253610726894681 6.3450923759228255 4.3851243598638536 N
atom 9.4345105399206908 3.6178628813676457 14.6531336302901334 N
atom 9.3621816239625364 3.6075250291173004 9.5004322821816860 N
atom 9.3157110897961708 3.6498282329722356 4.4448663311302923 N
atom 10.8343914554894258 0.8779961999134255 14.6125251258110573 N
atom 10.9385477268923292 0.9103697880134959 9.4570612694714864 N
atom 10.8985188344519059 0.9206989197985721 4.4787150580225310 N
atom 0.0129346826718067 14.4305074806602587 14.6006757213989911 N
atom 15.6261650958391840 14.3743056599378836 9.5672077216714477 N
atom 3.1729550784612877 3.5947717535211310 9.5329156808922662 N
atom 3.2294683978639731 3.5511502434780455 4.3785800682114697 N
atom 4.7304530309737141 0.8757466767546723 14.6212563540857374 N
atom 4.6381067508759060 0.8577534360152517 9.4496956497013702 N
atom 4.6724873140283902 0.8774525399920040 4.4364397233473607 N
atom 0.0164407722489835 3.5575477389500096 14.5822631745657247 N
atom 0.0248342079982770 3.5235197473873816 9.5041574067222800 N
atom 0.0229778477822405 3.6183574763201785 4.4528864605170977 N
atom 1.5595091376210199 0.8264273758177907 14.5523461975839048 N
atom 1.6068608622486322 0.7882170769888520 9.5564713890924278 N
atom 1.5300923784718339 0.8802602240213854 4.3344952586924768 N
atom 6.2668765769755934 3.7030939527557152 4.4829036816470662 N
atom 7.7432189988929148 0.8120354664221061 14.6122620266519814 N
atom 7.7781231925030374 0.8304889366982731 9.5744196328293878 N
atom 7.8447211291651495 1.0060736623061992 4.4907840807221149 N
atom 15.5592035032778870 9.0345018435262929 14.6546814050069845 N
atom 0.0774266105216282 9.0701081660729965 9.4954632909218457 N
atom 0.1344283338880917 8.9695113112094909 4.3873915726191557 N
atom 1.5949435472932814 6.2819682346704555 14.6343251107962473 N
atom 1.5348494465439617 6.3685129747385139 9.4577545825999643 N
atom 1.5768760724815380 6.2550312751685961 4.4291183084766912 N
atom 3.1431832484921007 3.5155635154335179 14.6242888841169609 N
atom 10.9161939823758445 11.7782327980974060 4.4042552870315061 N
atom 12.5152384021354131 9.0158202450385385 14.6352127874279212 N
atom 12.4843261979844389 9.0059888374266563 9.5624101713177048 N
atom 12.5196862968641796 9.0447883619250664 4.3954024064492421 N
atom 14.0906078453428449 6.2925402578986773 14.6493307466143605 N
atom 14.0940113622454071 6.3300141840737796 9.5879863383151527 N
atom 14.0969747328585928 6.2788906796642863 4.4286665298647208 N
atom 6.2919946788286705 14.3310467303443900 14.6766427091968072 N
atom 6.2189759531396636 14.4372072813923431 9.4393537003811705 N
atom 6.2700681063735786 14.4333920829187718 4.4051856723774447 N
atom 7.7857779643509923 11.6702555356343911 14.7211576245200551 N
atom 7.7772926023980142 11.7173179047344789 9.5181873294507184 N
atom 12.5038788787608102 14.4506409680759269 14.6201877363866277 N
atom 12.4878815108772407 14.4647400476472310 9.5331564946525287 N
atom 12.5298743842826834 14.4929451574423851 4.3771932084312333 N
atom 14.0649088173123893 11.7757385317609575 14.6490850172883693 N
atom 14.0856297599275155 11.7115731430706429 9.6093501863511754 N
atom 14.1382625276645815 11.6473696772345789 4.4354852813421584 N
atom 9.3997661378243400 14.4533353557542998 14.6254477751610459 N
atom 9.3273265565273462 14.4566304761238111 9.5800879988529903 N
atom 9.3675933224122563 14.3860722206134568 4.4655547953679076 N
atom 10.9523409340318132 11.7616435193199624 14.6046535501543300 N
atom 10.9573830525571001 11.7234317858825179 9.5546413762826621 N
atom 14.0258035824857696 0.9288842026274666 9.5024040900607751 N
atom 14.0174578804919125 0.8568339976882224 4.4730905655361681 N
atom 3.0485121940847910 14.4105998157013531 14.6784935834907770 N
atom 3.1711919089760334 14.4486546927932942 9.5170879731474809 N
atom 3.1025931713846941 14.4180699707975748 4.4505832540138233 N
atom 4.6692681475615094 11.5588783004479101 14.5939663641616075 N
atom 4.7209100159739492 11.7609351963626523 9.5782110348100531 N
atom 4.6801915623774644 11.6726451304659147 4.4687229549869647 N
atom 6.2419079552454786 8.9755842560476040 14.5642151929250918 N
atom 6.3390379132848285 9.0261123356175847 9.5651312377199780 N
atom 6.2257121257028629 9.0193351263845010 4.4372861539535018 N
atom 7.8675468005674869 11.7768214535580533 4.5125107051999152 N
atom 9.3899375232220557 8.9754139563143305 14.6303020701169242 N
atom 9.4242432542797037 9.0274720951222225 9.4686297277388984 N
atom 9.4362759962338121 9.0680138827551904 4.4580836583400645 N
atom 10.8618897665031184 6.2733194711356370 14.6050268238175196 N
atom 10.9963502498071541 6.2718297574371631 9.6015144523181650 N
atom 10.9040050619226090 6.3742000127647032 4.5008963035560692 N
atom 12.5985295274407250 3.6278218401675169 14.6259283688256652 N
atom 12.4906488725469487 3.6474216545850728 9.4905502014005165 N
atom 12.5054617780836672 3.6177935590638324 4.4298406151850678 N
atom 14.0177766397716592 0.9371601804972011 14.6349220973719767 N
atom 6.2593019244928687 7.2429573441957666 1.8021502657678012 N
atom 7.7804544130983748 4.4251549985942473 12.1126061465900001 N
atom 7.8216795163555517 4.4901190756311014 7.0250073458298603 N
atom 7.8691182573205074 4.5653255331661251 1.8118731689284691 N
atom 9.3858676065533526 1.7813321235573658 12.0941010249304686 N
atom 9.3919629560810041 1.8001162147920802 7.0904243691670796 N
atom 9.3588837731271717 1.8840220634919649 1.8887404016201450 N
atom 15.6051336598767314 12.7493949155645918 12.1585424869118555 N
atom 15.6090039221714498 12.6348254480752349 7.0532572148310484 N
atom 15.6098039879627155 12.6195329735274431 1.9548508260807396 N
atom 1.5407665381681845 9.9457746059486922 12.1093644393170194 N
atom 1.6363730220772892 9.9409345695282205 7.0269911083447729 N
atom 1.5342805654659204 15.2750664885105571 12.0099368427456046 N
atom 1.6514584801842014 15.3606097119275145 7.0079057014700670 N
atom 1.5991645348831707 15.3295566154595910 1.9481477886664220 N
atom 3.0715073502498358 12.6507872066907900 12.0795860641150679 N
atom 3.1265225760775972 12.6967008721979120 7.0451411808587734 N
atom 3.0833978802112001 12.6263632798870677 1.9084121958701177 N
atom 4.6593477793442606 9.9068110687881248 12.0990831783999351 N
atom 4.7191573454398714 9.9207687445689920 7.1316454189352916 N
atom 4.6795701937622942 9.9505667422184718 1.8559117429869307 N
atom 6.2747688594316653 7.2265407818094856 12.1010383278982623 N
atom 6.1942086498591395 7.1163178077200806 6.9462376456415527 N
atom 15.5814507284942767 7.1705351376990496 6.9803012149774553 N
atom 0.0215031142760126 7.1587053294164500 1.9836072551950950 N
atom 1.5405182776978057 4.6349897231273500 12.0383738195226027 N
atom 1.6501841952036942 4.4896855799414332 6.8852537414079480 N
atom 1.5673078615357467 4.4725714103082899 1.8923735001573589 N
atom 3.1493816674990560 1.8386066841960997 12.0397226402562385 N
atom 3.2336083607811057 1.7862792338201536 7.0650487638149047 N
atom 3.0447983696651639 1.8066591794579414 1.9328465731843378 N
atom 15.6122950724367247 1.8905444052472711 12.1098153596355687 N
atom 0.1054075837259117 1.9060882465447264 6.9403858197669352 N
atom 15.5957505391876037 1.8375493719740994 1.9047374657270677 N
atom 1.5911542503738754 9.9109415423481604 1.8163425144997933 N
atom 3.1313638596719007 7.2214339242101344 12.0500698982981120 N
atom 3.1768162274864253 7.3016654059260002 7.0914037195432735 N
atom 3.1655018543746358 7.2253333154332866 1.8431056330673348 N
atom 4.6505297248970887 4.5305867719809942 12.0575285038478661 N
atom 4.7268262912150902 4.4738780139419427 7.0616420022775479 N
atom 4.7123148969344832 4.4909310594800962 1.8798213446272749 N
atom 6.2336753484775596 1.8418348295297933 12.0360642856483686 N
atom 6.2764390938120016 1.9453430777708161 6.9902146388458704 N
atom 6.2110199571290545 1.8331942874727805 1.9065769032446849 N
atom 15.5682983443132983 7.3004944565177263 12.1132330963488464 N
atom 14.0768973439794696 9.9038094115624755 1.9300716715141506 N
atom 7.7788352124100912 15.3749663106458812 12.1237792042784793 N
atom 7.8853348287969034 15.3605432952089096 6.9823477607264834 N
atom 7.8299190352733596 15.3544232963624765 1.9251939356053367 N
atom 9.3253412621225085 12.6252447181150877 12.0081462769547276 N
atom 9.4034850820523559 12.6060440405396985 7.0209593856092347 N
atom 9.4095478624778082 12.6157520983586764 1.8209986692951641 N
atom 10.8562212578024777 9.9308202478285281 12.0485099108160387 N
atom 10.9685857296900462 9.9116078553969924 6.9713983367212800 N
atom 10.8908192495625205 9.9490068705354222 1.8005224979684109 N
atom 12.5379852746810947 7.2592072839830246 12.0734751673874587 N
atom 12.5153072044840989 7.2557017606388028 7.0183243789589973 N
atom 14.0792197862747059 15.3229730165347764 11.9759977110158431 N
atom 13.9453247188238638 15.3366889916385389 6.9373226170599569 N
atom 14.0673091782008743 15.2895023316480678 1.9524474421406481 N
atom 10.9857497301533016 15.3577314586577813 12.1324362726790387 N
atom 10.9059455432394472 15.3298979185490314 7.0073645292513955 N
atom 10.9337138773568885 15.3087875965903191 1.9019571931239230 N
atom 12.4268454356273264 12.6931845439757378 12.0289589051938623 N
atom 12.4951990878739085 12.5777074855479114 7.0124967661898872 N
atom 12.4712943828113243 12.6001968758969802 1.9103546629484733 N
atom 14.1350436457226429 9.9158511673510823 12.0550751498187712 N
atom 14.1742654006420441 9.8816921694409228 6.9979502882010403 N
atom 7.8433373580657229 9.9102844538447403 7.0160526569109543 N
atom 7.7855259034745314 9.8744542473545209 2.0377186957014395 N
atom 9.4318579658738617 7.2216719545959016 12.0806115539397734 N
atom 9.4450454635663803 7.1566587841559031 6.9294111055822496 N
atom 9.3621946752961396 7.1821900820570468 1.8891589053518703 N
atom 10.8806526471306757 4.5779218932642252 12.1552143171859601 N
atom 10.9722727665309190 4.5900620132242524 7.0388775704673847 N
atom 10.8953848466317922 4.4548109845973665 1.9722262895179068 N
atom 12.5102994848817968 1.8211935090715408 12.0598351579303422 N
atom 12.4643712959704622 1.7448828487859103 6.9567462345013782 N
atom 12.4170114190625398 1.7864792886754866 1.9310173034470486 N
atom 12.4490347961501957 7.1933326193839244 1.9661296289673578 N
atom 14.0933836384710567 4.5285574592219460 12.0688334927715495 N
atom 14.0877602747213313 4.5294668962244549 6.9853727970896200 N
atom 14.1340012161717823 4.4533028975723399 1.9406501218302239 N
atom 4.7321149683653490 15.3898265731585635 12.1988305659021776 N
atom 4.6831726605532271 15.3959734452246373 7.0029110087153104 N
atom 4.6173954122816285 15.3483547551753379 1.9477048865708499 N
atom 6.1752795879869717 12.6516473885926661 12.1892383047624158 N
atom 6.3054562229039375 12.6150052416680545 7.0065804935308025 N
atom 6.1830974378662420 12.5527040412074253 1.9021641588147349 N
atom 7.8388799021949662 9.9006588230316641 12.0163485177640492 N
