#===============================================================================
# Created using the Atomic Simulation Environment (ASE)

# Thu May 11 08:59:09 2023

#=======================================================
lattice_vector 15.6273739999999997 0.0000000000000000 0.0000000000000000 
lattice_vector 0.0000000000000000 16.2404434541285205 0.0000000000000000 
lattice_vector 0.0000000000000000 0.0000000000000000 15.2445761999999903 
atom 15.5730561207364708 14.4554208555976516 2.5777115390413665 Ga
atom 1.5845033431220161 11.7461025031944590 12.6503683042813826 Ga
atom 1.5946779391142800 11.7417999200031176 7.6122860228033291 Ga
atom 1.6454199218354264 11.8430345662500418 2.5877569111429910 Ga
atom 3.1437619493303277 9.0367475649610984 12.6460872835309672 Ga
atom 3.1665730138413473 8.9577469341329987 7.6399973537656818 Ga
atom 3.1660774278659036 9.0175806022582154 2.5302848395967974 Ga
atom 4.6768053710240647 6.3153290994878528 12.6726676570460057 Ga
atom 4.7038322304770803 6.3204319165644254 7.6303398546388026 Ga
atom 4.6599465842748398 6.3645063319668669 2.5243102715985946 Ga
atom 6.2902716128054950 3.5710496950108310 12.7369273691557652 Ga
atom 6.2817032256433523 3.6248647308102155 7.6963572208296629 Ga
atom 7.7816809464976133 6.3414053743416856 12.6854797726295097 Ga
atom 7.8162231713406287 6.3164253448939265 7.6650344894642348 Ga
atom 7.7511293056753949 6.3051723253863914 2.5792659138794951 Ga
atom 9.4336541228583126 3.6073993223132743 12.6459103280770293 Ga
atom 9.4398405120831015 3.6457415713354346 7.6401707081193049 Ga
atom 9.4549242018940429 3.5862138703500999 2.5522431561309484 Ga
atom 11.0043567166877505 0.8845653042544751 12.7092252568369730 Ga
atom 10.9040958911915293 0.8507441754791997 7.5725537003666563 Ga
atom 10.9480047528436231 0.8810952206825314 2.5448424413181314 Ga
atom 0.0664593189549157 14.3749655153896452 12.6635506387232457 Ga
atom 15.5852406680650599 14.4888686601677552 7.5160363852741652 Ga
atom 3.1180194844993854 3.6101029262113924 7.6264635426976159 Ga
atom 3.1002592936211668 3.6663753900760940 2.5597026918612960 Ga
atom 4.6753459070473191 0.8413429300740953 12.6596245549289517 Ga
atom 4.6563079759560422 0.9149833380652761 7.5483244116108938 Ga
atom 4.5981400855843697 1.0037483264640892 2.5607311474382675 Ga
atom 0.0809008918115590 3.5815554460306749 12.7623157088695383 Ga
atom 0.0836855966573255 3.5773212566178816 7.6164492177308274 Ga
atom 15.5810718025781920 3.6169452927735328 2.4911702250525840 Ga
atom 1.6030151927586298 0.8776798122357545 12.7228590581204735 Ga
atom 1.6467139369625727 0.8857993234572220 7.6079013474907731 Ga
atom 1.5893673690871171 0.8940022488644969 2.5947034397839248 Ga
atom 6.2717325143027072 3.6513170641073582 2.5364296267016715 Ga
atom 7.8132769264925050 0.8811717285208555 12.6530773647925177 Ga
atom 7.8002345678059770 0.8761067639988309 7.6977197716317081 Ga
atom 7.8604438086570347 0.9402810492602599 2.5883318769736765 Ga
atom 0.0712997454605789 9.0125653646990109 12.7004296935457237 Ga
atom 0.0012484909429972 8.9909164614173189 7.5889034827644153 Ga
atom 15.6258492231246624 9.0583261575183069 2.5454672166758465 Ga
atom 1.5104188812490695 6.2392213953036419 12.6307797109136501 Ga
atom 1.5125774001797312 6.4107743086205904 7.6485654165952877 Ga
atom 1.4863859130383736 6.3537652716201105 2.5570836547401830 Ga
atom 3.2269742298085613 3.6293051346793539 12.7634793547871883 Ga
atom 10.9141386296924701 11.6953833010968449 2.4499296381539741 Ga
atom 12.4102827147005730 9.0230032370278970 12.6619672473525284 Ga
atom 12.5428170389967963 8.9649070554438079 7.5413259389836549 Ga
atom 12.4707944750432507 8.9967244889750848 2.4665986346288662 Ga
atom 13.9711370015649550 6.3929405300538962 12.6836240843450305 Ga
atom 14.1398066932987589 6.2158355231215721 7.6429586249813379 Ga
atom 14.0956490176464193 6.3133726629209015 2.5318156138528320 Ga
atom 6.2460581635774588 14.3637860467735230 12.6897028400319876 Ga
atom 6.2269363021077924 14.5129818640941437 7.6516204722063677 Ga
atom 6.1940874265854768 14.4068627048120455 2.5467307269393413 Ga
atom 7.7983466011588281 11.8376469441941001 12.6739432960394556 Ga
atom 7.8167856581691764 11.7044958994122243 7.7552763679707901 Ga
atom 12.5885186147970476 14.4869243656044873 12.6172945466041497 Ga
atom 12.4912680521819279 14.4192375639868242 7.6810944013038540 Ga
atom 12.4057232139735110 14.3581508518712795 2.5818905534742855 Ga
atom 14.0837066983300829 11.6904716424399346 12.7729492297991278 Ga
atom 14.1337765128592601 11.7307081825792263 7.6000676054619607 Ga
atom 14.1035131120647392 11.7376838013060905 2.5239060145966814 Ga
atom 9.4003583738943668 14.4319805691246046 12.6965286867707263 Ga
atom 9.3676225673860394 14.4533883406939658 7.6077072879116798 Ga
atom 9.3598479862650112 14.4115448967674382 2.5161936367836049 Ga
atom 10.9851595453856721 11.7303096593016623 12.7256160133470271 Ga
atom 10.9027123102191119 11.7332795077329664 7.5197315141221255 Ga
atom 14.0342926747419909 0.9113805864013772 7.4943861196612716 Ga
atom 14.0341986720081664 0.8952364631099350 2.5159899868638820 Ga
atom 3.1061762875652383 14.4606463909043761 12.7758512581089381 Ga
atom 3.0904728983508263 14.4718646105613384 7.6703955608335415 Ga
atom 3.1131384311837036 14.4340067608475238 2.5697012360472411 Ga
atom 4.7298528495294923 11.7027989172547358 12.6822521601532543 Ga
atom 4.7639534539690382 11.7528542036745804 7.6635200044824003 Ga
atom 4.6212940965751095 11.7648671350863019 2.5659372203513509 Ga
atom 6.2235067351374189 9.1196747931096009 12.7604348113321748 Ga
atom 6.1892493717408810 9.0053543711757822 7.6277790755229917 Ga
atom 6.2857956484550908 9.0374142317194810 2.5665256682451254 Ga
atom 7.7327369402040320 11.7844118781372060 2.5885002649629847 Ga
atom 9.3304417694664057 9.0370619378888204 12.7307320114287901 Ga
atom 9.3775413901527340 9.0602373328122301 7.6482069900219809 Ga
atom 9.3437518538489250 8.9862869470614299 2.5335019260704894 Ga
atom 10.8876746801289865 6.3361034387660267 12.7478581540303182 Ga
atom 10.9351058893036726 6.3094456201837650 7.5035650865879671 Ga
atom 10.9591178998714138 6.4183513537998085 2.5050187035483602 Ga
atom 12.5524462580545713 3.5788630840609810 12.6490117472817420 Ga
atom 12.4983740558320910 3.5906446807564021 7.6338013611210123 Ga
atom 12.5027424619620735 3.6512159493532570 2.4952967676946209 Ga
atom 14.1861370550426855 0.8368511093877801 12.6947857118617193 Ga
atom 6.2703515684774773 7.2256900881679389 5.0811575154775301 Ga
atom 7.8198808817933179 4.4425721542219394 15.2131759503624693 Ga
atom 7.7880023525583590 4.5287256522127377 10.1260208533321112 Ga
atom 7.7366842526522577 4.6057292135516859 5.0736531880286622 Ga
atom 9.3599624547737879 1.8017666466939803 15.1987552665130412 Ga
atom 9.4417171593842895 1.7516932322487613 10.1678465961488183 Ga
atom 9.3050878535099635 1.7787647313117014 5.1346487313513718 Ga
atom 0.0604208986147622 12.5863741762006622 0.0341714940108547 Ga
atom 0.0802803261263331 12.6324954767649285 10.1321447071771988 Ga
atom 0.0403212044738988 12.5994769094656327 4.9525474968592187 Ga
atom 1.6088692366289905 9.9171048501368411 15.1772947536635883 Ga
atom 1.5953278411306049 9.8582411109482369 10.1487649729530780 Ga
atom 1.5169227202826479 15.3677961323441590 0.0722315827488948 Ga
atom 1.5545453490358445 15.3393664155518756 10.1898433807889290 Ga
atom 1.5247244605391894 15.3758739659934651 5.0713911687701207 Ga
atom 3.0874073349677693 12.6710076960337545 15.1783594024898800 Ga
atom 3.1598936188951203 12.7117957529382632 10.1980869036157689 Ga
atom 3.1959397474142834 12.6737316977089556 5.1561928176219389 Ga
atom 4.6827597573338320 9.9048743340028462 0.0051377052589844 Ga
atom 4.6092565797521976 10.0048491106967958 10.1503854101191795 Ga
atom 4.6905054426903785 9.9434580493801192 5.0912471407764652 Ga
atom 6.2011240944604520 7.1433807532777935 15.2352123122244762 Ga
atom 6.2410799572745450 7.2545862650428958 10.1312321711983451 Ga
atom 0.0489566898261540 7.2808586561940958 10.1578842851499331 Ga
atom 15.6044996273118066 7.2334812927642105 5.0607732774564624 Ga
atom 1.6388915037320324 4.5116971737847091 15.2311154661118522 Ga
atom 1.5873229335150043 4.4338067902643363 10.1539072197127815 Ga
atom 1.5746356072135756 4.4903865844090811 5.1544845036635829 Ga
atom 3.0839485147400114 1.8339820434590857 0.0374152939639765 Ga
atom 3.1463102013508557 1.7659845985042584 10.2066494531978957 Ga
atom 3.1037506797983010 1.8448559698752984 5.1762915904358193 Ga
atom 15.5947402139463041 1.7582193635899068 0.0081476644127696 Ga
atom 15.5609710508124426 1.6924289512372515 10.1763043154584576 Ga
atom 15.5916005224347263 1.8103513443415062 5.1382025587291116 Ga
atom 1.5990616533011603 9.8704961014800503 5.0693668413361497 Ga
atom 3.0410786445441444 7.2086072966944563 15.2128239391388558 Ga
atom 3.1207868109864050 7.1789448417308268 10.2244852621936531 Ga
atom 2.9963528730213271 7.2765506917146032 5.0071398389120825 Ga
atom 4.7648509187564709 4.5319812591313537 0.0992501692319873 Ga
atom 4.7491660489249243 4.4541634507676191 10.1961092206966875 Ga
atom 4.6635869469807769 4.6408498231694333 5.1318570182020427 Ga
atom 6.2572007498438573 1.7977687533045237 0.0517766141266107 Ga
atom 6.1806518920920270 1.7388929643435018 10.2285661183486596 Ga
atom 6.3275601234035452 1.8253803468944103 5.1006720094108555 Ga
atom 15.5782778466826954 7.2043375320892586 15.2236347874833378 Ga
atom 14.0273554165384731 9.9381845663386930 5.0678945477085202 Ga
atom 7.8248683495969233 15.3296671111898135 0.0243485669344837 Ga
atom 7.7552529527581608 15.3044539463693479 10.2246201758757618 Ga
atom 7.8129837195115144 15.2860784715189357 5.1158060058182508 Ga
atom 9.3341881323937397 12.6352748041470644 15.1751493686184400 Ga
atom 9.5301371207326184 12.6075143729913695 10.2620291634526311 Ga
atom 9.3796893456660193 12.5655292693682199 5.0820382940406130 Ga
atom 10.9168910548268752 9.9847041604864071 15.1987621528271504 Ga
atom 10.9753838486077591 10.0080951060105399 10.1552350735680736 Ga
atom 10.9148514139021930 9.8728113467872607 5.1133995946307973 Ga
atom 12.5127678164207445 7.2376972750532005 15.1931998801128039 Ga
atom 12.4871654792749780 7.2309205418241032 10.0913765091238741 Ga
atom 13.9612153414276960 15.2555417068935366 15.2414892252050151 Ga
atom 14.0372947353351840 15.3145680198153471 10.1245525674270365 Ga
atom 13.9768568579689436 15.3648790729166045 5.0467437282298961 Ga
atom 10.9758031554033799 15.3662518301353508 0.0207205869988002 Ga
atom 10.8408068757155753 15.2783334991125770 10.1314526263676665 Ga
atom 10.9266956200126160 15.2702002531005760 5.1349047067103868 Ga
atom 12.5029891290066395 12.6387599108134125 0.0119472715678152 Ga
atom 12.6503102464230803 12.6722153014861281 10.1162416784052986 Ga
atom 12.4233717623092836 12.6211614952359543 5.0506843484290007 Ga
atom 14.0702240663933278 9.9127931598196337 15.2222122701271516 Ga
atom 14.0390489638870388 9.8658186048902099 10.1353842485469841 Ga
atom 7.8374703848921721 9.9454472963019072 10.2040550765119686 Ga
atom 7.8486544095243733 9.9552669349948300 5.1038050544805547 Ga
atom 9.3497218816251468 7.2107427371126427 0.0567395859002876 Ga
atom 9.3238446016642005 7.1435049399634813 10.1318881574853297 Ga
atom 9.3578066532651540 7.1886681589816410 5.1753566889210738 Ga
atom 10.9549151165002616 4.5361254100626978 15.2391607441767629 Ga
atom 11.0076474372155566 4.5433998621990268 10.1251353686117938 Ga
atom 10.9498183387290293 4.5194095269784560 5.0008582228954834 Ga
atom 12.5675324790769114 1.8096666316639116 15.1984908346109151 Ga
atom 12.4111161162531616 1.7043400276080358 10.1347666709625681 Ga
atom 12.4940849854137586 1.8724190520552217 5.1071729501894962 Ga
atom 12.5654758847103771 7.2275695308111603 5.0806932005508232 Ga
atom 14.1506080188579357 4.4747296800217793 15.1508149611856737 Ga
atom 14.0612113680883333 4.4720574347688054 10.1537572614155991 Ga
atom 14.0721482087566621 4.4971413813488317 5.0650919619204240 Ga
atom 4.7644183424219131 15.3643472438014363 0.0112586588370176 Ga
atom 4.5706547262950865 15.2855495052043402 10.1826977170450377 Ga
atom 7.8167303841746856 9.9882358440475407 0.0238008072527160 Ga
atom 6.3386534069095921 12.6258524459202395 5.0543397972261275 Ga
atom 6.2463642029687962 12.6133635888665712 10.1998856791214703 Ga
atom 6.1617516122458147 12.6534621497589708 0.0463981666640323 Ga
atom 4.6753445697360387 15.3361596473406152 5.1203687542442031 Ga
atom 3.2193727064816202 8.9123469897362408 9.5245517350606477 N
atom 3.1786086394147661 9.0160972246890143 14.6332840068133070 N
atom 1.7268237371706907 11.6988925624227331 4.3773103205630033 N
atom 1.6905776723681545 11.7401865695976770 9.6655427994736822 N
atom 1.5930238888386121 11.7198512538660253 14.5624114274320817 N
atom 15.5792551337061571 14.4313840734719410 4.5369428738442625 N
atom 3.1255204117441693 9.0516993332192062 4.3748170941035349 N
atom 4.5753745866605078 6.2615416761458116 14.5427501691980723 N
atom 4.7362359960897304 6.2341811245728866 9.5812016854648867 N
atom 4.6683613744456469 6.3452330404235893 4.4488512270748091 N
atom 6.2837491424553278 3.6640535808279280 14.6168349544189873 N
atom 6.2537283608196672 3.5272485145692465 9.6274835967540682 N
atom 7.7145747767342652 6.3810659785019928 14.5374630658030917 N
atom 7.7904813778252615 6.3314911810277223 9.5572670751099391 N
atom 7.7752602966932720 6.4454930407411100 4.4172798029036340 N
atom 9.3480980316991769 3.5651182271817312 14.5479115603354501 N
atom 9.4294598956997735 3.6175173661303184 9.5752792345394493 N
atom 9.3640191131102526 3.5928685137747918 4.4425670827217711 N
atom 10.9352355561906549 0.8391167878103231 14.6369883372344098 N
atom 10.9565292592903418 0.8295025952253732 9.5955489303725123 N
atom 11.0155241137621385 0.9097226314011779 4.4562818060832896 N
atom 15.5621626570381348 14.3195716309821641 14.6288969639834594 N
atom 15.5784836786115370 14.4339249702251813 9.5138393936669612 N
atom 3.2690078509116058 3.5844530475250282 9.5363160586552560 N
atom 3.0934400780609446 3.6399375207779014 4.5087135163798004 N
atom 4.6546835859922524 0.8981258348448307 14.6297203516891674 N
atom 4.6757529464971821 0.9299861123114210 9.5339042278397041 N
atom 4.7801942704816938 1.0269408487102005 4.4791450312832763 N
atom 15.6089047890763837 3.4876734689219995 14.5729794646647584 N
atom 0.0051204039123796 3.5980312892450006 9.5315359468777281 N
atom 0.0537049611886667 3.6076197569339015 4.3833582846309902 N
atom 1.4932304361287616 0.8494030089808847 14.5631469581990043 N
atom 1.5883414628876180 0.9506998188498723 9.5130529924573697 N
atom 1.5780564787975384 0.9166920823044952 4.5017300093170398 N
atom 6.1332293962727311 3.6571519365856289 4.4959148966406373 N
atom 7.7003847163338950 0.9410918644043941 14.5809909647860305 N
atom 7.8238318643025107 0.9196564278244275 9.6250013656317783 N
atom 7.8787431221554129 0.7213678326612689 4.4853085314164245 N
atom 0.0056663927352916 8.9383374648487752 14.6284714650582721 N
atom 0.0079693947162012 8.9991856549433020 9.5448482127895797 N
atom 0.0170662509708757 8.9617001969035250 4.4022139482153522 N
atom 1.5428635249836664 6.2919596061324317 14.5457590980252220 N
atom 1.5141399664688935 6.2632503832329043 9.5043401854069103 N
atom 1.4910284364870372 6.2647539873964684 4.4295938623118589 N
atom 3.2855067476185704 3.6064451068042462 14.5933006163895378 N
atom 10.9234480856730070 11.7005972611725237 4.4019565265340299 N
atom 12.5532438081285118 9.0467786461116333 14.5165335824639747 N
atom 12.4832291980439436 8.9945895673918059 9.5294176044826546 N
atom 12.4379912557023253 8.9882609557648117 4.4854987583582915 N
atom 14.1371920655039567 6.3845906699454771 14.6749120953679615 N
atom 14.0285111127644413 6.2333523983511805 9.4507747775887800 N
atom 14.0637732077884756 6.2986881401391743 4.4503570599687601 N
atom 6.1950096302112154 14.4218426463397265 14.5770071442608451 N
atom 6.2132197259382931 14.4485430342107790 9.5983297845894722 N
atom 6.2797980201127066 14.5279049940530047 4.4701385292010727 N
atom 7.6955985982333797 11.8254631056763380 14.6465547324956162 N
atom 7.8421850027241522 11.7579610919704809 9.5812844678803071 N
atom 12.4466321991312316 14.4447981222348503 14.5008955025655251 N
atom 12.4997047996911501 14.4535788307367152 9.4644026564490940 N
atom 12.4535474270902586 14.3840537950733580 4.4256502611715556 N
atom 14.0443630648482536 11.7621619837399418 14.7417031632062194 N
atom 14.1643216795562559 11.6871905473545805 9.4269978302279416 N
atom 14.0708708352732224 11.7061458344210294 4.4628361976466904 N
atom 9.3508327517637966 14.4361668568743973 14.5876415486299376 N
atom 9.3864814357644413 14.3947948253398899 9.5651232138391311 N
atom 9.4187145584007812 14.3321558390529802 4.4779565090295872 N
atom 10.9071643872985433 11.7350397747964212 14.6088604483011757 N
atom 11.0868823899552300 11.7700432375547059 9.4495852396507196 N
atom 14.0240868213022551 0.8480494592478879 9.4434866217854623 N
atom 13.9260207059866445 0.8753991412633454 4.4637362821249233 N
atom 3.1777409713028955 14.4214231494098364 14.6163123721420511 N
atom 3.0834754388499221 14.5101110007614658 9.5857287068301105 N
atom 3.0697601441466564 14.4549653636595696 4.4551030960147928 N
atom 4.6563787224272506 11.7684635763768100 14.6804385060470182 N
atom 4.6485573529161162 11.8091717134593210 9.5363936381332550 N
atom 4.7191749600602915 11.8356068709365498 4.5588385092855512 N
atom 6.2270845700276984 8.9686023198025246 14.6871051178179020 N
atom 6.1938271518654462 9.1332869509862977 9.5555893855642289 N
atom 6.2856012305928495 9.0477501346279379 4.4064666124702754 N
atom 7.7888261118038118 11.8290746985186086 4.4598765525176898 N
atom 9.4532314208170103 9.0074321507979072 14.6482941019196637 N
atom 9.4000973155221654 9.1388477464154434 9.4903486930294054 N
atom 9.3683433458648828 9.0784135693779433 4.4204930540341882 N
atom 10.9288758915385582 6.3316405975633900 14.6338771889239396 N
atom 10.9745703372790970 6.2509371478735085 9.5060742872993682 N
atom 10.8895541439925783 6.3231284872018403 4.3761955781067288 N
atom 12.5322763745085304 3.5164580522138924 14.5655801124027100 N
atom 12.4900585108099360 3.5253864139444664 9.5149761502638732 N
atom 12.5264891208857208 3.6966812873219812 4.3662968180075952 N
atom 14.0789182496094227 0.8879033354613196 14.5489266011806624 N
atom 6.2225614425121325 7.2398874371403652 1.9777439249146116 N
atom 7.7997903525498780 4.5575910451592021 12.1179354848330227 N
atom 7.7703933539938319 4.4955293112931782 7.0329410053301888 N
atom 7.9065332289400896 4.4525917605762286 1.9507382314568369 N
atom 9.4235140414103480 1.7726626222074440 12.0820145743523977 N
atom 9.3298597050715859 1.8426881757608091 7.0660894032129846 N
atom 9.3683604699853227 1.8734795585947790 1.9288257684446903 N
atom 0.0290011082181587 12.6294566664268473 12.1441656523359427 N
atom 0.1202349659837060 12.6450290018322828 6.9339376259489596 N
atom 15.6193560550813650 12.6648674235471521 2.0104782046639320 N
atom 1.6025815821433567 9.9170203686503644 12.0838703656650566 N
atom 1.6083010369478996 9.9098802782692204 6.9462431628765557 N
atom 1.5601357490029466 15.3879268445662181 12.0856125363119951 N
atom 1.5408342979931835 15.3367097983797080 6.9984514809524434 N
atom 1.5187677766933656 15.4317396078887459 2.0441573870381555 N
atom 3.1645739889881783 12.6324725113482366 12.0341142830116592 N
atom 3.1386798791516499 12.6998018429374113 7.0276798961567843 N
atom 3.1475946288579251 12.6154641114611685 1.9082827003178697 N
atom 4.6191757235795396 10.0077801429812716 12.1002098284547408 N
atom 4.6376846209217240 9.9814493342996649 7.0480391617467131 N
atom 4.6919294405427987 9.9026787499055899 1.9776467167462211 N
atom 6.2336365809256113 7.2195419710959898 12.0246447718616842 N
atom 6.3010171022047796 7.1918847112810287 6.9709019139520354 N
atom 15.5230940734968197 7.2461275988648621 6.9813184404675450 N
atom 15.5925251242621261 7.2517481246812379 1.8523110215328131 N
atom 1.6261519231706316 4.4832754668069086 12.0661916760735295 N
atom 1.5743756952708436 4.5340249100244527 7.0215514564986519 N
atom 1.5066819628825803 4.5415445504654839 1.8706497185114528 N
atom 3.2463690000875394 1.7948228435787108 12.0515749105291139 N
atom 3.0397580291387287 1.8323758264046854 7.0460321496475355 N
atom 2.9993088973835231 1.9222231272419419 1.9429729220561847 N
atom 0.0484479676765624 1.8436504580210409 12.0973535234797804 N
atom 15.5984666907340834 1.7672749995663595 6.9881375109476487 N
atom 15.5789993396428912 1.7789312153613919 1.9460191415564625 N
atom 1.5817658891838040 10.0172732297962686 1.8971924182448165 N
atom 3.1098731772961732 7.1524922023977933 12.0309280646525441 N
atom 3.1026369118391215 7.1790745155051487 6.9315981469605461 N
atom 3.1187857445454359 7.2288475063723387 1.8949547296067326 N
atom 4.6968670303236628 4.5074695400063733 12.1068002131717289 N
atom 4.6718560392288122 4.4636007820731560 7.0192574406934982 N
atom 4.6906861408557647 4.5507872523758985 1.9585416448301287 N
atom 6.2067948153779380 1.7922205589773956 12.1638461287777204 N
atom 6.3102948904406722 1.8971793310974336 7.0836290189383835 N
atom 6.2273839514860470 1.8779827014650801 1.9987200021919937 N
atom 0.0305955538650510 7.2304950721141674 12.0538965167986483 N
atom 14.0360106266060747 9.9642001048546902 1.8067198426647577 N
atom 7.8085700599658594 15.2790778212757434 12.1155074411457342 N
atom 7.8770470786696514 15.3423364674314371 6.9458545849583082 N
atom 7.7624613187933358 15.3192425598238504 1.9403955620903297 N
atom 9.4443379001778922 12.5804994089941182 12.1237142265803044 N
atom 9.3168151765823115 12.6895228794227339 7.0123174414611125 N
atom 9.3784029896856786 12.7134537591401973 1.8312048838532182 N
atom 10.8317571323193604 9.9700524820251033 12.0642433001175586 N
atom 10.9869725714132169 9.8661574401063881 6.9790735165397146 N
atom 10.9413153975014694 9.9828856623813955 1.9050972297861650 N
atom 12.3802435588434747 7.1362708742981908 12.0811269667024312 N
atom 12.5162846318668510 7.1305387368367796 7.0472872537134368 N
atom 14.0720644093817668 15.2562020858473844 12.0598976446371733 N
atom 14.0856023525996115 15.3294604843033468 6.9197860167774339 N
atom 14.0919591284481740 15.3111900373275933 1.8642802766150639 N
atom 10.9834613582917715 15.4203139695005937 12.0105880187840164 N
atom 10.9770863126309131 15.3230557426821772 7.0629295922371478 N
atom 10.9502668109744761 15.3561172587142565 1.8936350881319317 N
atom 12.5697676759112493 12.6721942882074448 12.0192927691445561 N
atom 12.5128191036845990 12.6200685805739834 6.9523561179919362 N
atom 12.3849827375726687 12.5742215222100260 1.8938221468465781 N
atom 14.0725956995820809 9.8543045637171502 12.0817448291381542 N
atom 14.0974511958111890 9.9990186575221998 6.9645053144160363 N
atom 7.7229186697653480 9.8776271776738636 7.0491090805690311 N
atom 7.7772511496426802 9.9449717933493300 1.9578610412990434 N
atom 9.3435022601144446 7.3157908659924455 12.0677668486907610 N
atom 9.3849679880776531 7.1715191990424332 6.9715213817675519 N
atom 9.3284540112010266 7.2244956227190213 1.8758033759570274 N
atom 10.9768001584174222 4.3678762856895528 12.0288163634012921 N
atom 10.9353613555146350 4.4987418339013514 7.0099483568925827 N
atom 11.0149517357714632 4.6257501160093195 1.8830656452264567 N
atom 12.5231622778359082 1.7916521205681946 12.0880657145755475 N
atom 12.3833072248096965 1.8631816451034728 6.9498420542475028 N
atom 12.4819361625817145 1.7956741725554997 1.9234043530941980 N
atom 12.5216745266300915 7.1745251805393426 1.9294897103996009 N
atom 14.0858127861859437 4.4904938709008393 12.0573494993416279 N
atom 14.1015027236057602 4.4322199295263571 6.9752952469879350 N
atom 14.0450789320833582 4.6170317859274101 1.8996661544614770 N
atom 4.7489332400340274 15.3419044797021868 12.0667204505858798 N
atom 4.6032637958413698 15.3843015778157479 7.0687158899214237 N
atom 4.7094817533747824 15.3576025191710759 1.9748117360367403 N
atom 6.3097045696284706 12.5522254406366294 12.0852697506610625 N
atom 6.2122002170545345 12.5890465941132614 6.9368044345323554 N
atom 6.2467477453764992 12.6219358262837957 1.9972255142252140 N
atom 7.7849547288841698 9.9901134396576605 12.1496684999880724 N
