#===============================================================================
# Created using the Atomic Simulation Environment (ASE)

# Thu May 11 09:00:38 2023

#=======================================================
lattice_vector 16.5841519999999996 0.0000000000000000 0.0000000000000000 
lattice_vector 0.0000000000000000 17.2347563186669994 0.0000000000000000 
lattice_vector 0.0000000000000000 0.0000000000000000 16.1779175999999900 
atom 0.0494241054949286 15.3524748779743057 2.7956333688638875 Ga
atom 1.6138205282954834 12.4031790069624410 13.4725162752353107 Ga
atom 1.7530772885287877 12.4364406070189961 8.0612978837093010 Ga
atom 1.5962735755807849 12.4369975983325709 2.6470979528163219 Ga
atom 3.2773514052313559 9.6903608647664612 13.4743596394755247 Ga
atom 3.3345431652963486 9.5487848822057320 8.0445730202223107 Ga
atom 3.2818033268417577 9.6677404507916602 2.6577210810727983 Ga
atom 4.8476315944196005 6.7842685014186372 13.5132629481410458 Ga
atom 4.9633732016647603 6.7232158570253846 8.0495523831366480 Ga
atom 5.0144350981099146 6.8581981040994284 2.6323592567804135 Ga
atom 6.6959166897435889 3.8535264126914046 13.4215808159148011 Ga
atom 6.7232946391983797 3.8157412172808161 8.1356252213899829 Ga
atom 8.2022424639840992 6.7888301125566795 13.5298613050620791 Ga
atom 8.2495619001143332 6.7737660773344723 8.0911695285970833 Ga
atom 8.2741682183815968 6.6999086418999623 2.7484559557392947 Ga
atom 9.9188008688219274 3.8502398852065638 13.4750929662994281 Ga
atom 10.0172891689636163 3.8282408810584485 8.1022276842121936 Ga
atom 9.9453849619543053 3.8736285601330049 2.7278821894203102 Ga
atom 11.5181996162271467 0.9026587836639036 13.4531550261078312 Ga
atom 11.5990432340535516 0.8298882429883134 8.2724982605385424 Ga
atom 11.5850506685269252 0.9801125041173819 2.6892089658756739 Ga
atom 16.5737332949053986 15.1301667965831896 13.6350856888959679 Ga
atom 0.1580859554109099 15.3353200424132545 8.0921112123905292 Ga
atom 3.4644627174953522 3.8843397447509864 8.0842827706267517 Ga
atom 3.3501201810442001 3.7930937151375548 2.6431189876605954 Ga
atom 4.9955459680242340 0.9760245425993813 13.4888898144546108 Ga
atom 5.0154281061287742 0.9265194076711137 8.0385474060466944 Ga
atom 4.9148099554672271 0.9877359306721846 2.6760768115457547 Ga
atom 0.0240707236344117 3.7751333368248332 13.4855348894373179 Ga
atom 0.0494063086402467 3.8608153158789498 7.9223060280867115 Ga
atom 0.1058679589315328 3.8905852716829963 2.6597088101823099 Ga
atom 1.6853231748934097 0.8855193326174255 13.5610751131145779 Ga
atom 1.7750904555049478 0.9928829017602021 8.0386152916921922 Ga
atom 1.7055200820420926 1.0011588453450213 2.6842155862876651 Ga
atom 6.6358559835576347 3.9331797137994347 2.5717990494849539 Ga
atom 8.3319196964393445 1.0051588310115163 13.4295831906387750 Ga
atom 8.3298340915661910 1.0560512542736378 7.9961519030939732 Ga
atom 8.2607857600625252 0.8812183296272431 2.7833757136193160 Ga
atom 16.4940623299513511 9.4576150490498865 13.4465326322087577 Ga
atom 16.5163712701371779 9.5656733725682166 8.0182527478363443 Ga
atom 16.5458380496380677 9.6035033034350548 2.6925543941673693 Ga
atom 1.6615705050430407 6.7451107044113927 13.4739602128762535 Ga
atom 1.6895182714643440 6.6899503644079434 8.0279960009767386 Ga
atom 1.6997753316181441 6.7371757964061381 2.5742583096269600 Ga
atom 3.2508925548012648 3.8643218036375520 13.3542599465312506 Ga
atom 11.4052456016211021 12.3757580210179068 2.6777006372200822 Ga
atom 13.1460156951901492 9.4951212617038028 13.4825657532078615 Ga
atom 13.3125626593224116 9.5650420137611132 8.1190180519372532 Ga
atom 13.1813928767011710 9.5745912351430942 2.6622574777999661 Ga
atom 14.8617738022980390 6.5463488567832773 13.4984813102341867 Ga
atom 14.9611612314697311 6.7136483857168532 8.1111740968246711 Ga
atom 14.8790596836935247 6.7980473743413645 2.6725615431826077 Ga
atom 6.6515101270827151 15.3407144603062715 13.3971947136600136 Ga
atom 6.7426088738735777 15.2984413221860116 8.1550176253564768 Ga
atom 6.6196973183426993 15.3114360915235732 2.7999994725574862 Ga
atom 8.2856470335314913 12.4512393132843577 13.3695193708682272 Ga
atom 8.2201824764912903 12.3703446362621197 8.1235242426101220 Ga
atom 13.2758793378408448 15.3040408518150084 13.5832216729292252 Ga
atom 13.3253853695246089 15.2914714480080161 8.1039855392665086 Ga
atom 13.1757431428735625 15.3722441365760485 2.6995506773151186 Ga
atom 14.8661963197203644 12.3102397493631983 13.5562455492178255 Ga
atom 14.9638512791071197 12.5005776178911621 8.0813128023113414 Ga
atom 14.7389460580115426 12.5012126080200581 2.7026331925834612 Ga
atom 9.8916428595632944 15.4209630289714514 13.4569221237457537 Ga
atom 9.8936955288883706 15.2558110643956191 8.0794223867602906 Ga
atom 9.9157021787399042 15.3757118893447764 2.7183074158535327 Ga
atom 11.5722590548709512 12.4297376663974379 13.5636918111956550 Ga
atom 11.6505732685750409 12.4065957384406182 8.2630925810781406 Ga
atom 14.9510248693806194 0.9365900848267871 8.0659382979444096 Ga
atom 14.9391912108768405 1.0259700794600128 2.7283761940274220 Ga
atom 3.2333660017350128 15.2516560533703753 13.4636199931488818 Ga
atom 3.3011184383527477 15.4153142904344058 8.0601915737128689 Ga
atom 3.2821650750313762 15.3386325601912059 2.7495989763230493 Ga
atom 4.9267142922202831 12.4919419675222887 13.3421271880712098 Ga
atom 4.9573978310381674 12.4926750900726411 8.1369613708640642 Ga
atom 5.0000805730377742 12.4898947650666692 2.5634589437255011 Ga
atom 6.6444837318185463 9.5521472823813696 13.4717504635843337 Ga
atom 6.5900050614095766 9.5388376894959350 8.0919392357463131 Ga
atom 6.6898102448625085 9.5309002681060111 2.7099269202618044 Ga
atom 8.3436360418415081 12.4314637233513157 2.7461346862329372 Ga
atom 9.9686809218435997 9.5788909959649278 13.4769028256314432 Ga
atom 9.9504677739799714 9.5334409619139358 8.0364452005066269 Ga
atom 9.9195074342853271 9.5651433097777243 2.7463485059271160 Ga
atom 11.4799957859713420 6.5466350194106884 13.5320535734481524 Ga
atom 11.5586447533776457 6.6753836443755112 8.0489250922551765 Ga
atom 11.6243941185711304 6.7745904049931474 2.7277552803903111 Ga
atom 13.2003273311074310 3.7517582727171495 13.5075047746475736 Ga
atom 13.3101102578056203 3.7508812403103629 8.1833378977853055 Ga
atom 13.2870840178646699 3.8678947428735535 2.8180764448402966 Ga
atom 14.9331615164289673 0.8275699436816517 13.5173749581440230 Ga
atom 6.5246158698093035 7.5876347106077571 5.4389857741093754 Ga
atom 8.3419643717198788 4.8377929210733228 0.0282129196352910 Ga
atom 8.3047985111950098 4.7711917087345279 10.7863233390518278 Ga
atom 8.3502171593017529 4.8834773435050058 5.4624702136851173 Ga
atom 9.9787503741213577 1.8270976825528746 0.0011277459538745 Ga
atom 9.9286672684279296 1.8860270618835537 10.8151426519544884 Ga
atom 9.9359247254696790 1.9056283056888328 5.3633591101931453 Ga
atom 0.0574255147309073 13.3550962164843909 0.0141432564173745 Ga
atom 0.0869223008114976 13.4027944845821452 10.8227571588358575 Ga
atom 16.5831985518781835 13.3506556055396359 5.3623266268456256 Ga
atom 1.7315635525220954 10.5980247081599988 16.1217628209357251 Ga
atom 1.6264198691391993 10.4613226571388171 10.7418847956873353 Ga
atom 1.7031358167353570 16.2582585589765358 0.0695478095156289 Ga
atom 1.6009168533207441 16.3194072591795951 10.7752901728991599 Ga
atom 1.7032126838528350 16.2401524893681604 5.3646299823333488 Ga
atom 3.3290758186436165 13.4450736197726730 0.0466482627570335 Ga
atom 3.2868147565830856 13.4311450527194012 10.8163558333789354 Ga
atom 3.3436952300149869 13.3449558629773009 5.3772901830622724 Ga
atom 5.0526968384302631 10.6566787094025912 16.1294595618280638 Ga
atom 5.0152045358602555 10.6080393633061156 10.6971591068061809 Ga
atom 5.0236522630719360 10.4143866968491761 5.3580441358944775 Ga
atom 6.6680973387677129 7.7417288085672356 0.0200978501127648 Ga
atom 6.6292990203487596 7.6363126983915146 10.8112156962347932 Ga
atom 0.0077218144483598 7.5867303213540351 10.7073836327407452 Ga
atom 16.4945993862206421 7.6827321079080795 5.3811590774244555 Ga
atom 1.7890958225554232 4.8802539352908276 16.1187717037922731 Ga
atom 1.6517105216190757 4.7354084502514873 10.6770116754267619 Ga
atom 1.6501458517469625 4.7964470495104683 5.2307757589318218 Ga
atom 3.3530313107742260 1.9001944717257713 16.0853623923755613 Ga
atom 3.3408385364801223 1.9821557341472962 10.7547081051868751 Ga
atom 3.2836210023755363 2.0198517421871158 5.4125873564174123 Ga
atom 0.0569820180904488 2.0688289025257118 16.1534567412358534 Ga
atom 0.0011274335666092 1.8807250031688196 10.7001965492220581 Ga
atom 0.0087833313933214 1.8956520087372137 5.3780650315441703 Ga
atom 1.7305079338221714 10.5218363334718106 5.3589128750251049 Ga
atom 3.3621453933644454 7.7620971527734071 16.1684332552644818 Ga
atom 3.3537911472839990 7.7807797924105913 10.7374840116622732 Ga
atom 3.2658871861493664 7.5866747133371124 5.3958012697276905 Ga
atom 5.0189500722098250 4.7810675552259845 0.0272712474847692 Ga
atom 4.9580807694210831 4.8857094416740354 10.7521397241102541 Ga
atom 4.9983787896603786 4.7919411430811563 5.4039439116859391 Ga
atom 6.6632088482038867 1.9610510307650630 16.0936687190023768 Ga
atom 6.5503225021474174 1.8956120797068765 10.7989931000101755 Ga
atom 6.5381342828866842 1.9036024884504512 5.2872477309700692 Ga
atom 0.0402599498254747 7.6226844703267407 16.1681636640151858 Ga
atom 14.9541507017922921 10.4349157739297702 5.4028544239645058 Ga
atom 8.2619794282819132 16.2548042812230626 16.1448447031510653 Ga
atom 8.2394227018660704 16.2801228364839332 10.7688977212642953 Ga
atom 8.3512596297755177 16.2380309177484499 5.4120250993659509 Ga
atom 9.8158105667516207 13.4095305257405162 0.0125489218385436 Ga
atom 9.9246558841394457 13.4373853741092173 10.8257447066083010 Ga
atom 9.8798113510359435 13.3252003388573108 5.4222339172550011 Ga
atom 11.6008203095389053 10.4624361433045081 16.1726131698936975 Ga
atom 11.6219922517703598 10.5354436062861865 10.8339190855195575 Ga
atom 11.6256093997290577 10.5838912697795706 5.4655108553853120 Ga
atom 13.2544894203584551 7.6429725358302614 16.1382871210452592 Ga
atom 13.2712488357982359 7.6762997316190971 10.7584444766299026 Ga
atom 15.0004853708510595 16.3978664881647695 0.0958336626163626 Ga
atom 14.9501653655122695 16.1526171549709474 10.8583899448174694 Ga
atom 14.8940045175933182 16.1875629305869921 5.3114766821532671 Ga
atom 11.6431046844203543 16.3168299908681114 16.1302825001395682 Ga
atom 11.5896872490234397 16.2447021134320941 10.7906727059896497 Ga
atom 11.6184523427821471 16.2533231594369418 5.4188436714758730 Ga
atom 13.2565844188327908 13.3718670181431136 16.1765784229341101 Ga
atom 13.2087605487748743 13.3760505277665391 10.9005846876009862 Ga
atom 13.1949644347631470 13.2333324307267848 5.4871311447434312 Ga
atom 14.9949354684356120 10.5115846845320764 0.0424016014227639 Ga
atom 14.9021457202308873 10.5148380734700559 10.7691585863150294 Ga
atom 8.3178417225110142 10.5159868240760090 10.8074092455287101 Ga
atom 8.2451921088624189 10.4735500987897279 5.3788330419655352 Ga
atom 10.0309115890190768 7.7152659519832172 0.0929668534728099 Ga
atom 9.9594850672877051 7.6190261482938055 10.7774843739937456 Ga
atom 9.9139837247536740 7.6256824720576200 5.3564062853958809 Ga
atom 11.5780874906473272 4.7007649599056771 0.1154188960113539 Ga
atom 11.6105605012237447 4.7726690459198249 10.7489609081742952 Ga
atom 11.6689065014793041 4.7615398054788427 5.4609644600336837 Ga
atom 13.3617489273031893 1.9088800124608232 0.1472051904211874 Ga
atom 13.2676502662779381 1.9202014495015196 10.8442073290798167 Ga
atom 13.1649819241244916 1.8791726538306572 5.4180806132932045 Ga
atom 13.2172115177458025 7.6442871837095057 5.4218262607466627 Ga
atom 14.9039153080873703 4.8727139028993944 16.1088111525803619 Ga
atom 15.0080699571910134 4.7116282496859627 10.7204362675447236 Ga
atom 14.9554771071587584 4.8474345365100096 5.3647878768778057 Ga
atom 4.9805341800959226 16.3859018401048289 16.1178772831472017 Ga
atom 4.9434675776146841 16.2462400733527659 10.7887852620193740 Ga
atom 8.2994664377758571 10.4672812520439109 16.1625739127040084 Ga
atom 6.6141089974284988 13.4556220491444254 5.3864833969358905 Ga
atom 6.7250542451114876 13.4257434594892491 10.8182185788928855 Ga
atom 6.6786312227326610 13.4042832058212120 16.1732808262676038 Ga
atom 4.9781758096536155 16.3240319569977181 5.3850987430180570 Ga
atom 3.3270712681451853 9.6585795875085783 9.9777595151902538 N
atom 3.4137171714005299 9.8286050110050613 15.5698099113808475 N
atom 1.7265887372690651 12.4325288953322008 4.6603067976293451 N
atom 1.6901957662975464 12.4263846015261432 10.1507554164853833 N
atom 1.7272033756384311 12.4824447440553890 15.3957846096311357 N
atom 0.0192971147877568 15.2777657416008452 4.7536024069625400 N
atom 3.4218174468755680 9.5371281452872108 4.7117855416760541 N
atom 5.0320701090204007 6.7226780518365299 15.5172930133582714 N
atom 5.0140561296453345 6.7349413369410618 10.0359695618226805 N
atom 4.9980603029589883 6.6500441819652387 4.6805273236048031 N
atom 6.6371527729462878 3.8823577261414459 15.4541923743620551 N
atom 6.6964127699614320 3.7568726928335465 10.2011367073961434 N
atom 8.2138121775707909 6.8004445499402868 15.6365453953786826 N
atom 8.3614900102129308 6.6551402790752352 10.0400675240204951 N
atom 8.2346661731810133 6.7909326164739214 4.8224063364090508 N
atom 10.0273269611132587 3.8381545050377288 15.5696291416920474 N
atom 9.9483062674345852 3.7464362125446327 10.1310556046325058 N
atom 9.9045674134381265 3.8364609552448927 4.7013126461923695 N
atom 11.6920794819546252 0.9915727789430958 15.5032457276297908 N
atom 11.6080039807710893 1.0740613735523623 10.2980114328806884 N
atom 11.6814161682757547 0.8269536104262036 4.7699319445420985 N
atom 16.5511178693676406 15.2955860097957590 15.6497902280102092 N
atom 16.5506346765475492 15.2371571782367745 10.0682965435912930 N
atom 3.3105137233729067 3.9621792559313329 10.0895693263053019 N
atom 3.3869074196329971 3.8745884998028530 4.7412319740944628 N
atom 5.0017776805936158 0.9712601531936486 15.4536304627769194 N
atom 4.9752719938677963 0.8582247001610784 10.1161050971841338 N
atom 4.9024190410625197 0.9131388379726265 4.7024291882410374 N
atom 0.0798977083763297 4.0020936163146841 15.4982337358086539 N
atom 0.0467211839554753 3.7318405355756679 10.0618827500706658 N
atom 16.5735606487489555 3.8419063425082385 4.7376598781181389 N
atom 1.7013022134675619 0.9786637530588728 15.6079749228882836 N
atom 1.6980268729005183 0.9897712205753996 10.1437419718330588 N
atom 1.6203478664264899 1.0096974184138712 4.7648575366202248 N
atom 6.6820339303121230 3.8180446069681695 4.6788541374218600 N
atom 8.3340555414797208 0.9641618599205510 15.4873989325418862 N
atom 8.2864756678274727 0.9399938945583076 10.1299452184223924 N
atom 8.2961164098339975 0.8851025771209412 4.6803191644164492 N
atom 0.1002110270270510 9.5666978650743850 15.5180826353855821 N
atom 16.5162845822492415 9.5896869140895244 10.0596437559666434 N
atom 0.1359484820988942 9.4914408013902598 4.6310783091905057 N
atom 1.7683404736041166 6.8547924682842929 15.4864379250844291 N
atom 1.6939940316170976 6.6847459348385838 10.0123952715668842 N
atom 1.6158972824048974 6.7761235005089837 4.7032620402435850 N
atom 3.3993520720894872 3.8659406823502485 15.4318382841770809 N
atom 11.4991113669133060 12.3532702466113609 4.7462650814811944 N
atom 13.3458192946722836 9.6460241780501992 15.6079853477963439 N
atom 13.2004426970433641 9.5452007803843006 10.1512188577276934 N
atom 13.3489357979846801 9.5659495604909601 4.6998498220670033 N
atom 15.0211394047475881 6.8016723058025628 15.5858113170939543 N
atom 14.9554726986347610 6.6107864354851396 10.0667501963073995 N
atom 14.8968806913288567 6.7104286565411311 4.7797752192753622 N
atom 6.6024289131073495 15.3513566450077228 15.4039491562553970 N
atom 6.6814363174380151 15.3226206477324052 10.1421324874782357 N
atom 6.5737556674923274 15.3115373057659188 4.7243510476182928 N
atom 8.2483556475788760 12.3919215717000011 15.4503969213111709 N
atom 8.3575606885061600 12.4245667797107693 10.1944374472864805 N
atom 13.2931256181280002 15.3208934914502866 15.5565783211952606 N
atom 13.3280439563573125 15.3183932375882588 10.1117647578184471 N
atom 13.2094704606393751 15.2356428792908751 4.7820542788848561 N
atom 14.9256751894378308 12.5148198988361390 15.4976531304646858 N
atom 14.9129547949461347 12.4720434218215868 10.2340993909525437 N
atom 14.8761701040063077 12.3572995250592950 4.7288426420655947 N
atom 9.8735762618234286 15.3046466487693600 15.5074248880664900 N
atom 9.9230873332027887 15.3486747128876022 10.0764407397604696 N
atom 9.9256936485511158 15.2323282072338753 4.7399366310262696 N
atom 11.6268649859695188 12.4150565650847469 15.6060815108664102 N
atom 11.5007613521772303 12.4201016084109899 10.2135779633877668 N
atom 14.9263081703761689 0.8645410081927295 10.1491159335486731 N
atom 14.8325002405042348 0.9820065634214723 4.7154771474273556 N
atom 3.3350316074403623 15.4509608670720446 15.4989721140054861 N
atom 3.2028504275337997 15.3786471200241088 10.1633000303297063 N
atom 3.4693483929026923 15.2631951525233198 4.8455721575937432 N
atom 4.9825056740791469 12.5966587313646450 15.4990760925788393 N
atom 4.9946972268982162 12.4967352498460524 10.1571385874487969 N
atom 5.0584004999665133 12.3826275545171729 4.6981218869749126 N
atom 6.6664836544720094 9.5661115914100190 15.4757659110001491 N
atom 6.5933738018582790 9.5076396405695789 10.1698013127765439 N
atom 6.6691840808151772 9.5697218303083247 4.7451274312675205 N
atom 8.2003716204784318 12.3559234759739969 4.6994195083696964 N
atom 9.9000309410503959 9.5143006250590894 15.5366217701291482 N
atom 10.0504907565641233 9.6491737046110480 10.0518800776822381 N
atom 9.9866250881553160 9.6215794157944003 4.8352333600873285 N
atom 11.5222723149578119 6.6425670606474041 15.6346047021213597 N
atom 11.6333418584762356 6.7393916523476101 10.0635677826054408 N
atom 11.5182387908041886 6.7017799301229966 4.7441390364493952 N
atom 13.4127016192353370 3.8941583791631378 15.5119180091892552 N
atom 13.2193913431748431 3.7585092263454571 10.1572296495530026 N
atom 13.3056513923185680 3.8703065914809844 4.7540486149806531 N
atom 15.0331514521061074 1.0384166537330786 15.5671386942979240 N
atom 6.7149083434678891 7.6544458262610480 1.9919633711524158 N
atom 8.2877122677335233 4.8152755545495030 12.8065405305670481 N
atom 8.3524129515775378 4.8523187158105046 7.5072123367687471 N
atom 8.3368842872354616 4.8036943530145040 2.0173186119698476 N
atom 9.8142033745835846 1.9853474612457573 12.8267209511290261 N
atom 10.0202831455050756 1.8643188921997931 7.4815981396114211 N
atom 9.9784257702074068 1.9137373530702657 2.1386726593818528 N
atom 16.5020876472851086 13.3941074992298184 12.8648722609343853 N
atom 0.1480859298106374 13.3808586606466182 7.4146896595720895 N
atom 16.5613222150194730 13.4935482824704245 2.0930021488236332 N
atom 1.5788413185120560 10.4728218570946154 12.7634702562367490 N
atom 1.6075586717981130 10.4429287321847184 7.3784580870820857 N
atom 1.5204601088183547 16.2367258623114594 12.8136987350424398 N
atom 1.7124574752156678 16.3403221602708157 7.3384966864862697 N
atom 1.7662434906417934 16.2709295494508623 1.9989640986465662 N
atom 3.2395561465833045 13.3717501495276547 12.8028721655999593 N
atom 3.3370647175633383 13.3891382728954316 7.4951921555674090 N
atom 3.2605020627041492 13.3736326037425712 2.0965457504966616 N
atom 4.9879381521219406 10.6173820844761941 12.8387964544936661 N
atom 4.9453782823006920 10.6022257677925626 7.4613023547319015 N
atom 5.0340503178114844 10.5435577837562260 1.9774296525360502 N
atom 6.5296193962386644 7.6528235656751828 12.8309287438040478 N
atom 6.5691445077468629 7.6985044183072935 7.3900995439474721 N
atom 16.5203068014027075 7.6252007409372826 7.4698632881795595 N
atom 0.1282239216761660 7.6867870814734180 2.0030970177250502 N
atom 1.6944098515724342 4.8472215163091361 12.7107824756886707 N
atom 1.7832102495577116 4.7884665286244168 7.3166837995686871 N
atom 1.7331337426048283 4.7963472052390825 1.9676655550831035 N
atom 3.3679554961943041 1.9403569407927055 12.7877202230903002 N
atom 3.3567873091526663 1.9618104550652191 7.4667068458640893 N
atom 3.3180929763774407 1.9640595984754625 1.9737889088691127 N
atom 0.0341629655511871 1.8791602148446904 12.7742131969986179 N
atom 16.5350371508036176 1.9670086863080296 7.4473943466978945 N
atom 16.5689748372668753 1.9265614882179489 2.0181415918131420 N
atom 1.6143713581615644 10.6372051473914357 2.0157118132684158 N
atom 3.2849128089999984 7.7825741249372831 12.8366147193653148 N
atom 3.3075403279282636 7.5746734721469799 7.3574141644583770 N
atom 3.3976829874686647 7.7860055385478777 2.0186756190471264 N
atom 4.9633579206483249 4.8239512472134658 12.7872931964319978 N
atom 5.0319270498816966 4.8532910079723166 7.4076922700662218 N
atom 5.0135571932675198 4.8936956281575581 1.9431600482394085 N
atom 6.7021490547517519 1.9202042449958847 12.7985863289350892 N
atom 6.6393010738040799 1.9567822566039150 7.3399350120198932 N
atom 6.5719051476259578 1.9056388875491475 1.9800196964786732 N
atom 16.5826954279124372 7.5886036255894247 12.7887248805022153 N
atom 14.8760142522751497 10.5021635088143910 2.0892599640927907 N
atom 8.2613807914132042 16.3590429850109089 12.7533362947056972 N
atom 8.2534273229952202 16.2926302966745205 7.4362944744258765 N
atom 8.2373772717697840 16.2893182045331777 2.0882110067512332 N
atom 9.9547533662090668 13.5035797379173985 12.7748978295056688 N
atom 9.9979586412615884 13.3624739792283318 7.4857151040684986 N
atom 9.8564680521890899 13.5346265804179779 1.9446463830370964 N
atom 11.5947040338889451 10.4896226905156293 12.8611221264109119 N
atom 11.5470848204670720 10.6267121001939113 7.5580832449264488 N
atom 11.5907587955054758 10.4664233125561097 2.0147029411224731 N
atom 13.0899426185790659 7.4512683162809044 12.8153818404644788 N
atom 13.2688748952337754 7.7148101307201769 7.3979299029353944 N
atom 14.8402770532491797 16.1379479398345893 12.9453231686314023 N
atom 15.0757407144579325 16.3210212756657498 7.3516741740701947 N
atom 14.9128172072788825 16.2926413525116587 2.0916139665545499 N
atom 11.6330912617125684 16.2476327239604821 12.7969160357250651 N
atom 11.6147686362674190 16.3094624150331526 7.4813279191652162 N
atom 11.4925008215128308 16.3566537314764808 2.0388664136529786 N
atom 13.2031791857421403 13.4026271239858392 12.8817427588728197 N
atom 13.3870118817979229 13.4016019011737590 7.4193279652096109 N
atom 13.0937850017019048 13.4209197423079232 2.0880827924370133 N
atom 14.8293523949830792 10.3384948133507066 12.8129838056034195 N
atom 14.9719698132968482 10.5138217800246938 7.4176408381651440 N
atom 8.2615225537582884 10.4581861648146752 7.4480696192764206 N
atom 8.4127728409748155 10.5057774196716345 2.0116977136285743 N
atom 9.9344237059779275 7.6048521837421639 12.7938162205756232 N
atom 9.8717888313398383 7.6904313973781262 7.3956234632901063 N
atom 9.9406429142552444 7.7498351402856942 2.1108200314697307 N
atom 11.4942569470462796 4.7290726149863698 12.8078448387898991 N
atom 11.6363133994473369 4.8156633937802038 7.4794525470119373 N
atom 11.5907781812237456 4.7882419945591392 2.1275499633264956 N
atom 13.2452639914614192 1.8913041823114287 12.8315706168888788 N
atom 13.2487958331305169 1.8967564046866185 7.4787023222141320 N
atom 13.2025710150232278 2.0354744267526454 2.1188819737045064 N
atom 13.2427868729266436 7.7292391938355305 1.9631437223662549 N
atom 14.9275645497107448 4.7061671050268519 12.7848210474611381 N
atom 14.8637015816980806 4.8171545210010773 7.3645594201163869 N
atom 14.8573732410489825 4.9671568966568920 1.9573123100342713 N
atom 4.8426866158175876 16.3312166440139173 12.7419785910995440 N
atom 5.0670241880100901 16.2685297209906956 7.4322420740860764 N
atom 4.9703041702355311 16.2265159973868123 2.0627487246782592 N
atom 6.5168292686663296 13.4999522871207116 12.7131494554574473 N
atom 6.6846210646703881 13.4003948593655995 7.4503221482297839 N
atom 6.6829641069961170 13.4015013453689047 2.0781868074686414 N
atom 8.3651611694139820 10.4717986382474493 12.9217378021125491 N
