#===============================================================================
# Created using the Atomic Simulation Environment (ASE)

# Thu May 11 08:59:45 2023

#=======================================================
lattice_vector 16.0100851999999989 0.0000000000000000 0.0000000000000000 
lattice_vector 0.0000000000000000 16.6381685999439100 0.0000000000000000 
lattice_vector 0.0000000000000000 0.0000000000000000 15.6179127599999905 
atom 0.0184297951974957 14.8720775145552988 2.6047505414087793 Ga
atom 1.4958988169154313 11.9975971128502099 13.0252300972395698 Ga
atom 1.5679035606484897 12.0331723882550108 7.8477245731596952 Ga
atom 1.6227241937843870 12.0108330200625488 2.6196548978148151 Ga
atom 3.1806662701791346 9.2926274089738143 13.0198064971778429 Ga
atom 3.1416775351084225 9.1013833107413262 7.8188445591786619 Ga
atom 3.1406694854894819 9.2415170133684139 2.6369953916263089 Ga
atom 4.7693439372503423 6.4701557005006967 13.0311065435940741 Ga
atom 4.8340334033848480 6.4623371017843203 7.7661753302729508 Ga
atom 4.8225873692470138 6.4090656385157558 2.5278760449930839 Ga
atom 6.4589105799321134 3.7890935974040474 13.0389493600581101 Ga
atom 6.3630773247342187 3.7022613457463760 7.7840789498365650 Ga
atom 8.0919064023758303 6.4964822739353236 12.9702649811065704 Ga
atom 8.0450897163090254 6.5675936302660602 7.8573626372277401 Ga
atom 8.0076581265108278 6.4815544737813919 2.5132554615943934 Ga
atom 9.6022817688507924 3.7239206928364603 13.0929098175423118 Ga
atom 9.5390788327352407 3.8454334730555355 7.8883284200826829 Ga
atom 9.6032685896561514 3.7577577079767095 2.6459964142915449 Ga
atom 11.1760634670835035 0.9521884393823293 12.9994067255482424 Ga
atom 11.1475963443140422 0.9336904514678871 7.8019159034435637 Ga
atom 11.1700046545110592 0.8841455222752104 2.6050478907076942 Ga
atom 15.9901302846294140 14.7552925780904971 12.9572278959523981 Ga
atom 0.0035574033951548 14.7698376420764692 7.8151483724885447 Ga
atom 3.2396240225820527 3.7231296139268077 7.8035450653931058 Ga
atom 3.1859569639677776 3.5523180309311009 2.6117357689895675 Ga
atom 4.8233124821054645 0.9769101760186625 13.0457959774913412 Ga
atom 4.7716134532726171 0.9710986490368005 7.8135667670154190 Ga
atom 4.8977762560127358 1.0000766242923447 2.6904491442359881 Ga
atom 0.0477310816442061 3.8000953184533537 13.0783302613627885 Ga
atom 15.9543679800700691 3.8288149958089912 7.7186879034967530 Ga
atom 15.9016887225229659 3.5819212472509672 2.6189444178012469 Ga
atom 1.6424959352742274 0.9472250363030636 13.0219777856715311 Ga
atom 1.5442108783829012 0.9429474639492116 7.8536110450098935 Ga
atom 1.6869120094041767 0.8567991904786710 2.6053507315902125 Ga
atom 6.3982355732278489 3.7829558297245671 2.6235095558943615 Ga
atom 7.9758767376381439 0.8868427343089789 13.0520655339423595 Ga
atom 7.9659867060094465 1.0146996087592934 7.8533072891319655 Ga
atom 7.9915789339642593 1.0150313346905673 2.6497383297760559 Ga
atom 15.9291934324664997 9.2050677034551978 13.0110697840633520 Ga
atom 0.0024960192240897 9.2100020998168723 7.8014317702754630 Ga
atom 15.9842253524397986 9.2007145895505413 2.5390934007782739 Ga
atom 1.6338169495418178 6.4701784875860202 13.0748988445657677 Ga
atom 1.6224385832119075 6.4674385254140647 7.7184340932212381 Ga
atom 1.5408097006320847 6.3908399071323654 2.6722206136870610 Ga
atom 3.2908370524768298 3.9012989687891451 13.0790240464398391 Ga
atom 11.1912735602095061 11.9298595864120696 2.5616900191225800 Ga
atom 12.6865150996780685 9.2448213040518183 13.0944966172264863 Ga
atom 12.8799369983450163 9.2268632888930089 7.7572190934053422 Ga
atom 12.8203029380352511 9.1253493676551631 2.6409865657611888 Ga
atom 14.3768740279679594 6.5327009172495556 12.9072313036363724 Ga
atom 14.4141999508741900 6.4921831972224116 7.7807649134648242 Ga
atom 14.3736018722422827 6.4188371605826875 2.6076207263205147 Ga
atom 6.2991150966543232 14.8848011219170040 13.0480111058316055 Ga
atom 6.4015934790564737 14.7346184778029929 7.8203954479214906 Ga
atom 6.4640063392335954 14.8227489845623221 2.5991373031849880 Ga
atom 8.0091923616480880 11.9955474633010173 13.0537301899425842 Ga
atom 8.0692440119180766 12.0540893643765283 7.8841602815029805 Ga
atom 12.7914873058184302 14.7510442224938121 13.0391226907559510 Ga
atom 12.8256324891264750 14.7485525700443070 7.8092065696057196 Ga
atom 12.7902343001573939 14.8027414707145901 2.5480224148683481 Ga
atom 14.3393079091141509 11.9321809155323706 13.1132341379583579 Ga
atom 14.3665963361763342 11.9363188125880164 7.6366494125206605 Ga
atom 14.5012662426571950 12.0035457998895811 2.6564697691783326 Ga
atom 9.6466193075620481 14.8316403407976463 13.0009781805956468 Ga
atom 9.7203823939277800 14.8132545239711391 7.8297107556018011 Ga
atom 9.6173615404553043 14.8175243106247709 2.5680937110735762 Ga
atom 11.2481730339722379 11.9521067091663564 12.9801765583711912 Ga
atom 11.1728673254634767 11.9508592074250330 7.7094007769622044 Ga
atom 14.3361982131630654 0.9549482734115143 7.7165337564810104 Ga
atom 14.4151311476889212 0.9319939535590753 2.5312601673874195 Ga
atom 3.1763509344194465 14.8567840776822546 12.9728091664015341 Ga
atom 3.1942636820894581 14.7693511376738957 7.9274669555728483 Ga
atom 3.2656519142563347 14.8028480313358717 2.6524482455864899 Ga
atom 4.7786013934140792 12.0813917723995985 13.0613895423475004 Ga
atom 4.7589731123802297 11.9975094057081169 7.7863066205617928 Ga
atom 4.9149243684398840 12.0264910051534368 2.6181925651246463 Ga
atom 6.3464492439516142 9.2154280414389067 12.9738370261514522 Ga
atom 6.4567620591742170 9.2570735229513410 7.6880290154685991 Ga
atom 6.3669170634337098 9.3111803570436358 2.6699706893084247 Ga
atom 8.0246238841535220 11.9880003270484483 2.5926761840566366 Ga
atom 9.6258525647796507 9.2411539737254955 13.0661771103991473 Ga
atom 9.6086764491291312 9.2649989677627005 7.7040668079915449 Ga
atom 9.5673123995835425 9.2302040618785615 2.4809865325045330 Ga
atom 11.2884378104791843 6.5009604426370338 12.9525355582004895 Ga
atom 11.1900095240989614 6.4674007614401798 7.7432450958625099 Ga
atom 11.3220074780981363 6.5173139644912093 2.5671953202256637 Ga
atom 12.7911886933083068 3.7222456883151676 12.9692146757605027 Ga
atom 12.7230486391323030 3.7358584504447800 7.7998572862911519 Ga
atom 12.7842360222924913 3.6777989444834507 2.6395076686676111 Ga
atom 14.5338821971492820 1.0738359156311656 13.0367888560991094 Ga
atom 6.3610101688450458 7.4454509763274404 5.1393959090628138 Ga
atom 7.9877912010752414 4.6894848867761523 15.5720431115047457 Ga
atom 7.9137853379390783 4.5014606389650904 10.3723304126837039 Ga
atom 7.9363421398239575 4.6868345560842588 5.3129235547536009 Ga
atom 9.5191872611919823 1.8797280989833964 0.0225808549149235 Ga
atom 9.6512727173054227 1.7942274112732319 10.4734742057032051 Ga
atom 9.6094017391724744 1.8918031247046472 5.2220657197911082 Ga
atom 16.0007842527278363 12.9325444711349533 0.0280722540345458 Ga
atom 15.9401819958251068 12.9285372876241542 10.3726358292622436 Ga
atom 0.0799375628829291 12.9248715933996614 5.1564605154943317 Ga
atom 1.6024882181249525 10.2093861770028731 0.0826480731489793 Ga
atom 1.5132702876772746 10.0976344396617836 10.4901159481812822 Ga
atom 1.6313828853143515 15.6950795666770926 15.5983600088817926 Ga
atom 1.6252488093875752 15.7462660255460349 10.4926908453893528 Ga
atom 1.6955177781700532 15.7519830995321897 5.2936953560706117 Ga
atom 3.2577224863321317 12.9915754853168171 0.0844401346706745 Ga
atom 3.2014865423887318 12.9230912391159478 10.4565085825852222 Ga
atom 3.2428742601335001 12.9543789259714313 5.2159058661490789 Ga
atom 4.8555957441957114 10.2142270064023943 15.5483800293156751 Ga
atom 4.8511995164736748 10.1164474268787483 10.4081110105240562 Ga
atom 4.7755935858112304 10.1231072529032247 5.1684951649500190 Ga
atom 6.4129852987411873 7.5047388823824708 0.0901054827933381 Ga
atom 6.3724564056563091 7.3968239282386712 10.3799572183145585 Ga
atom 0.0604406215093602 7.3514689514480809 10.2904246357032783 Ga
atom 0.0237338659086360 7.3592031656210422 5.1750739441495641 Ga
atom 1.5847102642725330 4.5731318913672165 0.0917941669137681 Ga
atom 1.6037072607811826 4.6315429202233291 10.3968454991274530 Ga
atom 1.6917356809421351 4.4614142794182214 5.0729305931408639 Ga
atom 3.2153424788385658 1.7974336222722676 15.6083851652515371 Ga
atom 3.2563302102197880 1.8392113380418511 10.3797359034225209 Ga
atom 3.1683086043037987 1.7716671399018777 5.2693758488199824 Ga
atom 16.0077020021774210 1.7867173114318933 0.0169031683494368 Ga
atom 15.9865750781703309 1.8398378497900629 10.3142635500734823 Ga
atom 0.0236091609059504 1.9038391640639016 5.2595187208774741 Ga
atom 1.6297965512257058 10.2059783757506857 5.2261865276349244 Ga
atom 3.1500847910144620 7.4513329253139302 0.0787176966657198 Ga
atom 3.1959882501260899 7.4036489216185677 10.4084317149320178 Ga
atom 3.2074323157373330 7.3373532010315348 5.1575757320408044 Ga
atom 4.8435672842458253 4.7837912085706309 15.6138633600159640 Ga
atom 4.7829507908556126 4.6362695876610784 10.3140304894922910 Ga
atom 4.8739849278631890 4.6758134809280794 5.2335095916844869 Ga
atom 6.3753358120226720 1.8993739170562491 0.0709974882081844 Ga
atom 6.3507449008455943 1.8134313992978754 10.4255421478247001 Ga
atom 6.3999921378435403 1.8399959096714220 5.2115215802209569 Ga
atom 0.0795195691136148 7.3488199816286004 15.5902539025802174 Ga
atom 14.4597441414816696 10.0454342139176340 5.2060182404565891 Ga
atom 7.9600311582113266 15.6834575243043695 0.0503712827222899 Ga
atom 8.0245212749164558 15.7171808819818981 10.4184051402928262 Ga
atom 8.0420038958505788 15.5933103981776675 5.3509538296570049 Ga
atom 9.6094116215607066 12.9697622981890728 0.0007244505039105 Ga
atom 9.5529933040035520 13.0046592666326593 10.4105776490963819 Ga
atom 9.5739714710795383 12.9402140048063341 5.2138443238878001 Ga
atom 11.2469911490225254 10.1083316103261946 15.5755778565953182 Ga
atom 11.2333290578141849 10.1675262474454424 10.3185260964631915 Ga
atom 11.2200732471837341 10.0924073372682219 5.1814607875493763 Ga
atom 12.8145913145789301 7.4256139780626178 15.4766331975007372 Ga
atom 12.7549560707682836 7.4088960224716800 10.3037672144134014 Ga
atom 14.4467936240450499 15.7361630076001280 0.0306147563510384 Ga
atom 14.4075958592113693 15.7234762436637023 10.3609779523276639 Ga
atom 14.4366764405526471 15.6751399257342872 5.2205234385168362 Ga
atom 11.0964440509685147 15.7435776412925978 15.5517088286464240 Ga
atom 11.3025528583985739 15.6631419339450044 10.4131035764858044 Ga
atom 11.2881424911652974 15.7841950010176024 5.1608157149587637 Ga
atom 12.8304482190390612 12.9728723789435456 0.0039790272582511 Ga
atom 12.7198727936439351 12.8502512624765544 10.3526960512803115 Ga
atom 12.8063743827364558 12.8782033271110201 5.0874794675086186 Ga
atom 14.4453807119785012 10.1612115354664088 0.0581472072847404 Ga
atom 14.3835801013184543 10.1390905394463147 10.4642952779106420 Ga
atom 7.9920408946636519 10.1189277503942598 10.4122034187587449 Ga
atom 8.0006823027027423 10.1639255620611486 5.1571340284918818 Ga
atom 9.7106328479477177 7.4311201527516024 0.0790264826421376 Ga
atom 9.6777195486363805 7.4007594104794858 10.3602991379783109 Ga
atom 9.5453152668074726 7.4180881827150751 5.2484090186669734 Ga
atom 11.3185931266294677 4.6026321638890284 0.0125633394467284 Ga
atom 11.1052908910125652 4.5961202912035262 10.4626245302853569 Ga
atom 11.1921789157126330 4.5490774374149510 5.1422187549842837 Ga
atom 12.7672982502353403 1.9152702759371449 15.5556384842502489 Ga
atom 12.8065230801058831 1.8360062566674800 10.3720137349853392 Ga
atom 12.8989886600332699 1.8155205413612872 5.2226293628275533 Ga
atom 12.7746706513636799 7.3680973665153324 5.2746515780009480 Ga
atom 14.3973858850433665 4.6742349443134961 15.5681865031584898 Ga
atom 14.3087957460665987 4.6067503496808770 10.3282237257127623 Ga
atom 14.4497496736725832 4.6752617298861123 5.2269286803153099 Ga
atom 4.7843100435132406 15.7147172219153521 15.5949689530406577 Ga
atom 4.8512648100160618 15.6474185106596551 10.4757671096730096 Ga
atom 8.0056011041482478 10.1350819470689721 0.0881171420421295 Ga
atom 6.3457582035030473 12.9265805413821617 5.2331141309921501 Ga
atom 6.2898708884062184 12.9571251856387875 10.4638984077388493 Ga
atom 6.4405236141127595 12.8986582700438586 0.0420491562587958 Ga
atom 4.8315942320407466 15.7516971506776891 5.2488563946889766 Ga
atom 3.1552901537575755 9.1873322029359841 9.7585763082322199 N
atom 3.1703865769789266 9.2295749901534450 15.0093415286267238 N
atom 1.6921386975349875 11.9736557913221233 4.5754199173375953 N
atom 1.6227325467597598 12.0344952370980245 9.8781168524679881 N
atom 1.5635036749036031 12.0121043674951675 14.9978627850355561 N
atom 0.0922423920519078 14.7501521851159403 4.5385419381042471 N
atom 3.1105207450378956 9.1207530748054939 4.6609260701668456 N
atom 4.7958146435800284 6.5015396935069463 15.0699917560314258 N
atom 4.8355201458004755 6.5115683985936972 9.6553693851625866 N
atom 4.8371674475309829 6.3818187864758578 4.5567149146237735 N
atom 6.4232720863063344 3.7430318867367269 15.0000311504308712 N
atom 6.3343965834582496 3.6683109055030849 9.7094856593240220 N
atom 8.0498982456103860 6.5339657701079981 14.9590810433819854 N
atom 7.9946234038026347 6.3957578975090854 9.8354478298697128 N
atom 7.8879740950596853 6.4842979979962347 4.5207886411360194 N
atom 9.5811115837699408 3.6916570639672011 15.0666272826182510 N
atom 9.4432825288251951 3.6580821451774899 9.8299361613526539 N
atom 9.5360463215715683 3.6923343794053736 4.5578226962422610 N
atom 11.1041084202383047 0.8953806190261475 14.9834566652762078 N
atom 11.2295811431813988 0.8743931704399294 9.7341449851923869 N
atom 11.2138791809997365 1.0072290335113954 4.5162843566525703 N
atom 0.0272903545552452 14.6982001194557110 14.9526507630457299 N
atom 0.0074932910388329 14.7621931992709676 9.7367806758068181 N
atom 3.1180051793405030 3.7247820714780042 9.7064079148824334 N
atom 3.3781814810434057 3.5872521842980465 4.5518980892316039 N
atom 4.9081173634249122 0.9123466388997615 14.9803716424919831 N
atom 4.8222014543985487 0.8523199615965179 9.8010252557464703 N
atom 4.8572713714530984 0.9212281378397872 4.6023937968151420 N
atom 0.0581488131795787 3.6502804700223894 15.0392570665330343 N
atom 0.0106268338184231 3.7200546221594708 9.7919849974417268 N
atom 15.9453763142984855 3.6949731726141479 4.5764332078171712 N
atom 1.5989835845737168 0.9716441420010159 14.9911348097558292 N
atom 1.5773138378948166 0.9821602096701064 9.8213304067966796 N
atom 1.6910127146345777 0.9542556830587432 4.5582978788079860 N
atom 6.4019548827891821 3.7391797598501357 4.5886501524122645 N
atom 7.9357315185275814 0.9438159614637927 14.9909784286427001 N
atom 8.0567892961547045 0.9723143616764012 9.8630041202998395 N
atom 7.9966961680108843 0.8428200016452091 4.5274860874454008 N
atom 0.0705551985579712 9.1838182217719329 14.9810319746903708 N
atom 15.9830796608113506 9.2569181365258526 9.7529393399459359 N
atom 0.0171843153941681 9.1841761714491756 4.4968387981879117 N
atom 1.6714610548715667 6.4009298197813598 15.0010349642741225 N
atom 1.6504050617161994 6.5128687742444153 9.7065955635658945 N
atom 1.5736529522718750 6.4445588854995455 4.5658375649111775 N
atom 3.2789071450549749 3.7372290764865688 15.0383794439152538 N
atom 11.2348145738854654 11.8985710558600140 4.5467828957287830 N
atom 12.8368992033114200 9.1888376098726763 14.9934236029512178 N
atom 12.8387803367894779 9.2761377878006162 9.6865345773269578 N
atom 12.8157668452609528 9.2463878360688607 4.6125843283394277 N
atom 14.4713500075713952 6.5892168944024867 14.8657066694195645 N
atom 14.4116687625673130 6.4271515745182857 9.6942014687587150 N
atom 14.5087717487138086 6.4103657707740265 4.5948941859587373 N
atom 6.3700661748327283 14.6881560189244720 15.0002582872153702 N
atom 6.4026811032603881 14.7951801943567069 9.7441073892650056 N
atom 6.4343185562281446 14.7600729523298853 4.4822918842386654 N
atom 8.0608296341862804 11.9915413662583017 14.9599079551697596 N
atom 7.9535014316473998 12.0197868802935695 9.7757201743135962 N
atom 12.8437640099333983 14.7718766648829458 14.9326184609550801 N
atom 12.8048253947880681 14.7656077385593285 9.7979735121197447 N
atom 12.7818951053913690 14.7148920449318599 4.5481298383985704 N
atom 14.4490791733056696 11.9488414577864361 15.0271690667691704 N
atom 14.4379266709115228 11.9953835035418788 9.6342856243400448 N
atom 14.3924646448488254 11.9492729320153916 4.6570113822257015 N
atom 9.4918949695688433 14.7655356807874618 14.9713830701400550 N
atom 9.5692863281263651 14.8141647263040106 9.7736837387407363 N
atom 9.5706712595492043 14.6926485062375836 4.5576993842909861 N
atom 11.1728343287433614 12.0003128879176444 14.9260526568542957 N
atom 11.1139998233411728 12.0171890488218427 9.6859529689493975 N
atom 14.4323775100294753 0.8748249630853296 9.7142231197630249 N
atom 14.4140610323695419 0.9038708797468030 4.6231415233086173 N
atom 3.2348247431522448 14.7636273745070543 14.9231986639736984 N
atom 3.0146575398363766 14.6584491860105928 9.8867215380962197 N
atom 3.2498130578193969 14.7833984360729271 4.5848582124570676 N
atom 4.8554194388648568 12.0220017553460856 14.9304214135868971 N
atom 4.6832571678220773 11.9744926933779734 9.7445995184307019 N
atom 4.8596429896818449 12.0393636114916340 4.5155392046832290 N
atom 6.3534984639833114 9.2530693820511178 14.9553060969340681 N
atom 6.4752504685729955 9.2651218011456216 9.6735313965429750 N
atom 6.4232453245919032 9.3178101051108531 4.5778231532341840 N
atom 7.9101401391417063 12.0174955515302742 4.5477971887863688 N
atom 9.5723609431423515 9.2213537187667711 15.0019897046218667 N
atom 9.6523201070027387 9.3235482841644792 9.6762206242566009 N
atom 9.5187302162157010 9.2401197507149853 4.6074922450845825 N
atom 11.3013093072812190 6.4944817384407871 14.8892717307352296 N
atom 11.1707982411718696 6.3820572646048195 9.7714594325694897 N
atom 11.2336851736448580 6.4098091922799147 4.5328906695516444 N
atom 12.8161666645914387 3.6907159869300821 15.0083718004459197 N
atom 12.7197263880498408 3.6757595889297390 9.7951108141303678 N
atom 12.8549302151976050 3.7063782212949259 4.5841825897501618 N
atom 14.3266325243264756 0.9293507758980464 15.0239015500302937 N
atom 6.3394011243926549 7.4199253957374181 1.9932715014877573 N
atom 8.0244769442257162 4.6426408486434267 12.3544087612984086 N
atom 7.9761192903684064 4.7680288560660777 7.2264554854773095 N
atom 8.0426434428286910 4.7088348020801964 1.8806330971642500 N
atom 9.6198479817748055 1.8098302118244005 12.3946826353388975 N
atom 9.5282136082978255 1.9660213990678419 7.1230229721299816 N
atom 9.6023831443567769 1.8779831777050808 2.0056199736792362 N
atom 15.9050432299935895 12.9253787590633635 12.4359030443354932 N
atom 0.0321776352292556 12.9358782353347461 7.1535375779983834 N
atom 0.0672402275862536 12.9233821225031829 1.9543064835656325 N
atom 1.4938427579062536 10.1372857456176320 12.4149823444437590 N
atom 1.5667610680089339 10.1858717151076785 7.1667770136804165 N
atom 1.5641864396297811 15.7724906230090696 12.3663373294026666 N
atom 1.6600852770576748 15.6761202414623781 7.2626295882648373 N
atom 1.7029891887143913 15.5682670259525278 1.9759485575245193 N
atom 3.1566739653441180 12.9474755576236742 12.4660318348346149 N
atom 3.0892242220977764 12.9666087307168656 7.1884569124390367 N
atom 3.2466550113796266 12.9873967502437129 1.9769624082067567 N
atom 4.7570613404738493 10.1890707903614111 12.4209468192122348 N
atom 4.7583774893545634 10.1290450853905760 7.0755142341691011 N
atom 4.7888787348166657 10.1639296665307945 1.9922980859441468 N
atom 6.3658682777639131 7.3722450532783759 12.4375945636932297 N
atom 6.4646922885186164 7.4628224616834533 7.1345353048443920 N
atom 16.0077669649889138 7.3763672296840515 7.1339672484035157 N
atom 0.0316876922098984 7.3101162393787558 1.9935776434393171 N
atom 1.5838610360524290 4.7030759041567807 12.3986315708132580 N
atom 1.5968374905219103 4.6707578716221443 7.1018298898002650 N
atom 1.5123185261160743 4.5397329541613445 2.0469118861344291 N
atom 3.2009469413893856 1.8941519255610102 12.4112951183586642 N
atom 3.1739632650842990 1.8680096342141801 7.2454204179564075 N
atom 3.2061584677913197 1.7149930592170197 1.9236348679379691 N
atom 0.0734175497090973 1.9880311889653635 12.3912258104040003 N
atom 15.9795962465380921 1.9041023026902166 7.2434063860833957 N
atom 0.0317252572669374 1.7905485628154780 1.9710132139241625 N
atom 1.5259817633552915 10.1751621851906862 1.9938224218337153 N
atom 3.2007119982217200 7.3135900642992651 12.2712259321848105 N
atom 3.2068097905095385 7.3714227627497158 7.1614267649111030 N
atom 3.1549255859941550 7.3245265549024419 2.0104064866498237 N
atom 4.8288290178606719 4.5710484309851491 12.2761467674562343 N
atom 4.8326610488767185 4.6640759723772938 7.2049977310933793 N
atom 4.8304228979795729 4.5766473600357838 1.9822161195966579 N
atom 6.4534037861073799 1.8470241669059038 12.3868248869778270 N
atom 6.3840761384122349 1.8888374904297398 7.1129347127514837 N
atom 6.3853313630355375 2.0234119995834234 1.9909582787091884 N
atom 0.0894017237357253 7.3427957756588471 12.3789347717255964 N
atom 14.3946201498679045 10.1694281571892517 1.9839351645298355 N
atom 7.9819815713149707 15.6464122631245619 12.4038961733636803 N
atom 8.0254668725293747 15.6909532391247222 7.2415536326717733 N
atom 8.0307235613378083 15.7331563507992893 1.9520214280161732 N
atom 9.6374695893371278 12.8712446804446721 12.4309453036169888 N
atom 9.6259705156089748 12.9649869737305199 7.1007038063058774 N
atom 9.6285659713798832 12.9161874822483220 1.9149741002266818 N
atom 11.1764243620973573 10.1840626403575794 12.3259735123910747 N
atom 11.2237328464911084 10.1983057706467584 7.0754967811564331 N
atom 11.2655869702514977 10.1127375063037110 1.9149792775322765 N
atom 12.8639067608112985 7.3642625064184655 12.3288781178347069 N
atom 12.8456494179341778 7.3571439973153652 7.1723667807134621 N
atom 14.3192314919197727 15.6970556426079462 12.3631461322439140 N
atom 14.4411265531353816 15.7481801325513864 7.1663607802151637 N
atom 14.4274374863049033 15.7209703870399533 1.9701691285277108 N
atom 11.2201929795536977 15.6661148742041281 12.4283690103305648 N
atom 11.1819434638355091 15.7371747654512504 7.2272339512976220 N
atom 11.2027563398343482 15.7122073809001215 1.9060971508566071 N
atom 12.7932831448466509 12.9606353279745328 12.3579973230816087 N
atom 12.7061553612913016 12.8986468284741242 7.1980869487271892 N
atom 12.7755191473657401 12.8990603596097380 1.9996449767220228 N
atom 14.3026263447580977 10.2247772824620853 12.4144865400802011 N
atom 14.4460282534437621 10.1354284148904821 7.1348601665547227 N
atom 8.0338650384676278 10.2917502117947031 7.2140234930336060 N
atom 7.9651170436707606 10.1287221174027522 2.0839578205313831 N
atom 9.6805609476707826 7.4166433308953090 12.2761085140648980 N
atom 9.5059458107141097 7.3986262509286194 7.1092801341211711 N
atom 9.6835194033874199 7.2890256102932423 1.9646422700707149 N
atom 11.3373075127624254 4.5717924904181926 12.4042290276084888 N
atom 11.0754467852103762 4.5758278047020795 7.1259048663895479 N
atom 11.2734392048633953 4.6463408761687388 1.9528324828190513 N
atom 12.8396121051919536 1.9076344640435081 12.3976359674957184 N
atom 12.7501607570164079 1.8998900534930312 7.1593557972668043 N
atom 12.8080997650114394 1.8569136000522388 1.9166128297145779 N
atom 12.9166141857733638 7.3304985572310883 1.8136994189247453 N
atom 14.4040631568147841 4.6317673576242617 12.3250067696881516 N
atom 14.3412867742545149 4.6531151149755461 7.2323356341034826 N
atom 14.3968949564553341 4.5683427203786779 1.9138832351077633 N
atom 4.7906134718098867 15.7330845811181455 12.4018703138935287 N
atom 4.7557569263474253 15.6881341176040721 7.2756046170123483 N
atom 4.8509566196605851 15.8280586547027013 1.9018196247860781 N
atom 6.3462467136453951 12.9225330040583852 12.3917176552710551 N
atom 6.3798553118228334 12.9923141669172466 7.1808312599249113 N
atom 6.3763058894879716 12.9649387851187541 2.0089807874595187 N
atom 7.9880772803211908 10.1372549592434229 12.4102767301608150 N
