#===============================================================================
# Created using the Atomic Simulation Environment (ASE)

# Thu May 11 09:00:39 2023

#=======================================================
lattice_vector 16.5841519999999996 0.0000000000000000 0.0000000000000000 
lattice_vector 0.0000000000000000 17.2347563186669994 0.0000000000000000 
lattice_vector 0.0000000000000000 0.0000000000000000 16.1779175999999900 
atom 0.0534953824771902 15.3203672815068064 2.6950828977105505 Ga
atom 1.7223448943341402 12.3682302601269729 13.4918639846065247 Ga
atom 1.6322503108277988 12.4859560185433338 8.0527574296055526 Ga
atom 1.7142981006321696 12.3418148663663025 2.6554083230162506 Ga
atom 3.3601855474320241 9.4898838959184513 13.4097011392057990 Ga
atom 3.4664075154065679 9.5495248237916908 8.1378483283502057 Ga
atom 3.2839044098179082 9.5894230570663517 2.7049178468134030 Ga
atom 4.9719844454349831 6.6821028694289248 13.4323451177418409 Ga
atom 4.9489608358617705 6.6743624656343723 8.0206956462402950 Ga
atom 4.8329769663634758 6.6741847158409540 2.6323339742006358 Ga
atom 6.8468381090018076 3.7571720887751283 13.4830182538133947 Ga
atom 6.6339479449319425 3.7504351586726719 7.9768846685136428 Ga
atom 8.3486728414397788 6.7975630626323547 13.4568034178573264 Ga
atom 8.1809657401848810 6.7401586219782379 8.0108132842778108 Ga
atom 8.2193357723759330 6.5662691512413414 2.6457681331990530 Ga
atom 9.9173374482958607 3.8695233783227825 13.3615124533409872 Ga
atom 10.0223213906848407 3.7966582140234033 8.0010834131740296 Ga
atom 9.9357930427428212 3.8232038575644727 2.7602690003374204 Ga
atom 11.5434788446140804 1.0225329628340827 13.4905785962450846 Ga
atom 11.5222235905240407 1.0051853119636618 8.2609148717448289 Ga
atom 11.6068745232787158 0.9810664242287089 2.7395655827809282 Ga
atom 16.5684845894796950 15.2448758285907644 13.4341704243656359 Ga
atom 0.0494905648032648 15.3146488634052673 7.9960691238748840 Ga
atom 3.2549121797377931 3.8377472199245410 8.1453135094166260 Ga
atom 3.2427137013469971 3.8573771054147401 2.7253221458936658 Ga
atom 4.9171181523739556 0.9478841997322094 13.4759734915995466 Ga
atom 5.0324693490306389 0.9759615364969549 8.0318084049198166 Ga
atom 5.0527765286564925 0.9138776147265553 2.7646090931450109 Ga
atom 16.5369672600055360 3.7645978093534000 13.6429992353779657 Ga
atom 16.4247665605949820 3.8516098948070336 8.1329744328518174 Ga
atom 16.5118773945060582 3.7900621402999120 2.5726716687837996 Ga
atom 1.5529917103369355 0.9299610901095573 13.4641360867250501 Ga
atom 1.5556553260435775 1.0769339549711074 8.0541527106895501 Ga
atom 1.7176354189998502 1.0125932667967334 2.7189941435935907 Ga
atom 6.4916147092472603 3.8412398375804040 2.6465689049106333 Ga
atom 8.3292800267833123 0.9198961541045646 13.4717684715937569 Ga
atom 8.2377298842328308 0.9449886036475661 8.1959984746144130 Ga
atom 8.2773241443409269 0.9764206830626616 2.6943683219067340 Ga
atom 0.0775156029356522 9.5998094953240951 13.4341284380145911 Ga
atom 0.0642475196952043 9.6286769165810018 8.0615992369605198 Ga
atom 0.0723331278767207 9.6721212654817119 2.6493495548610739 Ga
atom 1.6723908083317058 6.6002101366680890 13.4216827278742077 Ga
atom 1.6204178957274473 6.6766826804197796 8.0915054238205517 Ga
atom 1.6268623309177934 6.5957046411481137 2.6290081907601062 Ga
atom 3.3619129471202940 3.8177398278140484 13.4611374109750592 Ga
atom 11.6285519082811746 12.3967757946018278 2.8423329450560813 Ga
atom 13.1965445386268989 9.5445622698646044 13.4846712030798201 Ga
atom 13.4371735175682545 9.6924727302000413 8.0622233552120885 Ga
atom 13.3847073442400575 9.4935365743213342 2.7164430134006579 Ga
atom 15.0074201834561212 6.7822516490192015 13.6374947522109355 Ga
atom 14.9897023434469077 6.7254578806094019 8.0255790942022216 Ga
atom 14.9238898346744655 6.6416408807562064 2.6970855197293884 Ga
atom 6.6008980175032530 15.3021913761692954 13.5854191031578448 Ga
atom 6.5084314605268148 15.3201183633430844 8.1561600085477490 Ga
atom 6.5837791989668135 15.3153051001901623 2.7875828697204614 Ga
atom 8.3218495820882410 12.4505897516763859 13.4769682265041055 Ga
atom 8.2017694637032257 12.4497632554303692 8.1177057712246405 Ga
atom 13.2407444093805786 15.3137461298535644 13.3517877226595445 Ga
atom 13.2156923814116389 15.3009338326750512 8.1566838822834793 Ga
atom 13.3686714353701444 15.3112184994695770 2.8008079956248166 Ga
atom 14.8242092009971511 12.4276462743049585 13.5102488363207645 Ga
atom 14.9374848842189287 12.4085470061164749 8.0384560887353533 Ga
atom 14.9508898026416244 12.4608856846765228 2.6588603942552287 Ga
atom 9.9327179149372125 15.3607919080939652 13.5428123938356162 Ga
atom 9.9450784352035235 15.2804994349699221 8.0972393310509272 Ga
atom 9.9794916141707315 15.3401922183569308 2.7759752136855353 Ga
atom 11.6338600230640061 12.6250796413620581 13.5160157863101063 Ga
atom 11.5552434839378666 12.4580797305084943 8.1089989742522128 Ga
atom 14.8718246459704897 0.9443945488352429 8.0842394946420040 Ga
atom 14.8555457992342959 0.9594782798408017 2.6117962580092082 Ga
atom 3.3326557887070893 15.2629406726334143 13.5482816242781769 Ga
atom 3.1302456204946623 15.3905906555422014 8.0158588890230575 Ga
atom 3.3376527597798797 15.2781424396032559 2.7028265005144783 Ga
atom 5.0021409298307526 12.4852729260368616 13.4051105089083133 Ga
atom 4.9668457281151772 12.4703323164757069 8.0760923321039346 Ga
atom 4.9896873143464244 12.4394729939461204 2.7187004649884230 Ga
atom 6.6196646275966033 9.5977464905151599 13.5369753032171438 Ga
atom 6.6202741564222380 9.5346039775970546 8.1285447992093101 Ga
atom 6.5909487604188950 9.4586359448957698 2.6003989055431869 Ga
atom 8.2134061584955464 12.4513036851586687 2.6742660365293660 Ga
atom 10.0129565638762834 9.5572397150080057 13.4250307429485964 Ga
atom 9.9803279548229682 9.5589223427664223 8.0557233513596262 Ga
atom 9.9518097291098844 9.5898547481220042 2.5977440510198315 Ga
atom 11.6319759420449262 6.7165922716990831 13.4623498076291064 Ga
atom 11.6110327289980688 6.8305927948030876 8.1099800961261881 Ga
atom 11.7067820046145190 6.6478281404338784 2.7158190604977630 Ga
atom 13.2968666643212359 3.9330027073002096 13.4339159394292267 Ga
atom 13.0747867977286223 3.8883354143265909 8.0960467665402849 Ga
atom 13.1775230758451229 3.8368782730839004 2.6676883367750164 Ga
atom 14.8533637841537303 0.8041219781548149 13.4710800820838870 Ga
atom 6.5595496932643389 7.7265402861568981 5.2802716670026637 Ga
atom 8.2659403714775497 4.8214446788545313 16.0877943524809268 Ga
atom 8.2615479863305250 4.7389872914284501 10.6725367521947696 Ga
atom 8.2248201925032003 4.7490875223764686 5.3116352231881798 Ga
atom 9.9541347185576026 1.9901061279795706 0.0765419494655948 Ga
atom 9.8781993316547698 1.8692507025717382 10.8055064732134980 Ga
atom 10.0385743241067384 1.8336633784110410 5.2855382246261797 Ga
atom 16.5466013380979504 13.2970202445146750 0.0727521568789593 Ga
atom 16.5656303791877555 13.3916861720475850 10.8567199793403475 Ga
atom 0.0340637117121370 13.3808598531812812 5.3162897332990298 Ga
atom 1.6233236501676322 10.5487644478274252 16.1465383519677452 Ga
atom 1.6477552641599822 10.4954048474185502 10.7152878580809414 Ga
atom 1.6718273977567741 16.3385299552307117 16.1507063185292239 Ga
atom 1.5232267993699151 16.2261721787615478 10.7351890854267857 Ga
atom 1.8451735228042019 16.3577478176199911 5.3261242558689812 Ga
atom 3.3128167614144695 13.4424818349442692 16.0760869914727778 Ga
atom 3.2458212626098448 13.3830278552786339 10.7528769316732919 Ga
atom 3.4299691824075809 13.4369888702383449 5.3909115971657178 Ga
atom 4.8630124770518526 10.5751611456076073 16.1356680801792685 Ga
atom 4.8508527356987488 10.5388357685106939 10.8534895706254506 Ga
atom 4.9143488898368437 10.5028644063823364 5.3808869406935562 Ga
atom 6.6367515851036822 7.7245587496736379 16.1386285528347173 Ga
atom 6.5718540413714672 7.6606445552183606 10.6835865426500227 Ga
atom 0.0887379526757374 7.5718487648288795 10.7731679081160667 Ga
atom 0.0512522166255909 7.7673775974066102 5.2677935215553235 Ga
atom 1.7124263702796865 4.7826634556434611 16.0977032960315114 Ga
atom 1.6960904679186721 4.8224385518179025 10.9269630749079347 Ga
atom 1.5972600884596320 4.7450491754580311 5.4469967121439007 Ga
atom 3.4017144482511195 1.8722819471085510 0.0229686464158993 Ga
atom 3.3310595987678182 1.9275389789694544 10.7707744934395198 Ga
atom 3.3458981994399366 1.9716977622435838 5.3845757733406003 Ga
atom 0.0254925341061861 1.8719276698695753 0.0550932509064164 Ga
atom 0.0219845953458496 1.9231597173243205 10.8296668395508213 Ga
atom 16.5371976672414647 2.0671431594136047 5.3345089968054582 Ga
atom 1.7014941055790014 10.5841154322076605 5.3761647548036278 Ga
atom 3.3869358448350302 7.6358007024494814 16.0897454031017233 Ga
atom 3.2219500607935001 7.7518761249918837 10.8412490173416600 Ga
atom 3.3260552359053079 7.6505250565276750 5.2876216377551213 Ga
atom 4.9204985825958705 4.8082093642817219 16.0664716797395286 Ga
atom 4.9652814248027415 4.8165356459513582 10.7940750257435862 Ga
atom 4.9217522040984099 4.8190419223747192 5.4137728203646320 Ga
atom 6.6879043683888346 1.9697841426585543 16.1553454351334018 Ga
atom 6.6455713736804736 1.9235120652048847 10.8637064250291839 Ga
atom 6.6022894267921801 1.9015111073344448 5.3861097124967392 Ga
atom 0.0290780129194681 7.7518244929577556 0.0602621454462678 Ga
atom 14.9658314208688754 10.5743973577353252 5.3269164232889192 Ga
atom 8.2681297315327651 16.1881368295286272 0.1595474005628912 Ga
atom 8.2778568725691120 16.1032369085726152 10.9075969162865665 Ga
atom 8.3674789751724088 16.1703335987736168 5.4742808110917096 Ga
atom 9.8966850668533581 13.3306349857104074 0.1395087465274270 Ga
atom 9.9024209333195543 13.4791152320995415 10.7686229506517677 Ga
atom 10.0461120260866092 13.4157162274393045 5.3889634248096874 Ga
atom 11.5768487076195949 10.5389652712361030 0.0742616843139192 Ga
atom 11.6486660665574622 10.6084575185679704 10.7392909382152784 Ga
atom 11.6792773859613259 10.4552452949964945 5.4143760843484028 Ga
atom 13.2438301189974119 7.6989399136651615 0.0099546467154245 Ga
atom 13.3913600893106821 7.7258690477237497 10.7783916038385055 Ga
atom 15.0073045804601826 16.1628015062134693 16.1456669767784291 Ga
atom 14.9648567360979552 16.1620627812818682 10.6950116402961743 Ga
atom 14.9665537844482053 16.4489291046029678 5.4057477061680519 Ga
atom 11.6212946843154192 16.1909293711777345 0.0351052294754370 Ga
atom 11.6199893568525656 16.2935541819926506 10.7567828210367367 Ga
atom 11.6944209620217183 16.2625402018781564 5.5079065669242926 Ga
atom 13.2591954201015962 13.3856420542187191 0.0740251413512596 Ga
atom 13.1940686632532582 13.3314455079573477 10.7247463685127347 Ga
atom 13.2363354098751795 13.3912433239636783 5.4399336878197397 Ga
atom 14.9294601372965818 10.5884336747692060 0.0016954411039455 Ga
atom 14.9489599989042006 10.5910290108539655 10.8608249077782784 Ga
atom 8.1620302740982495 10.5324792715058386 10.7729020555882204 Ga
atom 8.3539351723503685 10.4786498502309495 5.4827068411341164 Ga
atom 10.0027807925743968 7.5988637319241423 16.1628529575953266 Ga
atom 9.9591086570718588 7.6626032575894429 10.7374910790143723 Ga
atom 9.9114675250292041 7.6092223969094572 5.3946815847019467 Ga
atom 11.5835870505532590 4.8458002296808749 16.0702775463268530 Ga
atom 11.5831704190945697 4.8646969020653472 10.8260085759450870 Ga
atom 11.6391089970793384 4.7598326035164158 5.4871463644876224 Ga
atom 13.1637855491428013 1.9780369137638099 16.0685590487969066 Ga
atom 13.2130436612354227 1.9820861985388636 10.7922526833506147 Ga
atom 13.3054321208746913 1.9722161389372355 5.3752711178414740 Ga
atom 13.2881372461041956 7.7038288225469600 5.3862417045067907 Ga
atom 14.8900887807701139 4.8079093059059090 0.0600949585296828 Ga
atom 15.0520197147284609 4.8347518770975944 10.7619404669745471 Ga
atom 14.9057637112273724 4.8751856667985427 5.3590793784929422 Ga
atom 4.9591383739743673 16.2634397914726776 0.0303028279635691 Ga
atom 4.9056330546552314 16.2335852554232929 10.8856458494770969 Ga
atom 8.3924162048237232 10.4886625141322636 16.1734978266410110 Ga
atom 6.7880074842678901 13.3776155219164021 5.3881791246806650 Ga
atom 6.5454910101431745 13.4010043849881288 10.9126489423106854 Ga
atom 6.5660427522463687 13.2982961314112753 16.1681080407607745 Ga
atom 4.9880244966020095 16.2255281876000268 5.4384725742789470 Ga
atom 3.3319503026738047 9.6186265922355059 10.1216557489516212 N
atom 3.3320405980159737 9.5938999458850329 15.4547755148808381 N
atom 1.8255464039868401 12.3896393458289289 4.6527491177889404 N
atom 1.6933656259041643 12.5213989063704307 10.1700138752468892 N
atom 1.8189929145219730 12.4317086380360848 15.4752487939000343 N
atom 0.1035922674416750 15.4077788293799145 4.7375567353214079 N
atom 3.3038638804078158 9.6344282200885747 4.7053133898886363 N
atom 5.0552197628684965 6.7155106621720790 15.5486271182050384 N
atom 4.9476978306617756 6.7085909583192294 10.0743290032951691 N
atom 4.9675957004958882 6.6961901978004574 4.7110665124471129 N
atom 6.7058291611387952 3.9983314919555077 15.4826652165382939 N
atom 6.6112666313009294 3.8016858294001552 10.0744017621104387 N
atom 8.3004738837128311 6.7359019189442462 15.5507683020641014 N
atom 8.2841324203562898 6.6579941813421986 10.1811995508979738 N
atom 8.2543531140763378 6.6297185929661167 4.6803116862216028 N
atom 9.9443484746538520 3.8510227764291693 15.4907370350068909 N
atom 10.0124371733715787 3.7277765640284288 10.0937151752016572 N
atom 10.0347362884569886 3.7725739233079514 4.8386167179677457 N
atom 11.6541601093561678 0.8764661203119659 15.5368001769542978 N
atom 11.5366080411379226 1.0015817131717903 10.1760253876044544 N
atom 11.7553723694031440 0.9327294980550304 4.8257324320450490 N
atom 0.0476919073600593 15.2505205438490528 15.5260956437747151 N
atom 16.5233430375209203 15.1848086695523605 9.9679157278721284 N
atom 3.2799951829529870 3.7598557647678712 10.0724786021941863 N
atom 3.2949703828044230 3.8637956666101885 4.7451463403236973 N
atom 5.0038509644533020 1.0521463760446663 15.4852833577884681 N
atom 5.0435650450173091 0.9794990419207090 10.1746972503236588 N
atom 4.9324174550029216 0.9348815150582577 4.6930975266882893 N
atom 16.5786256472064331 3.7914596338308946 15.5697183782727517 N
atom 0.0491950643499947 3.8772159436535127 10.1146779797726527 N
atom 16.5466171600491236 3.9605705434986511 4.6021999062213634 N
atom 1.7042435419017048 1.0404195768600970 15.5461098748903215 N
atom 1.7105890841354252 1.0772943436086571 10.1272533386141710 N
atom 1.7145664459271210 1.0205279110604077 4.7853647082808575 N
atom 6.4929769121874266 3.8567651160734560 4.6989933819727110 N
atom 8.3541257086485086 0.8746021712856846 15.5778555923078166 N
atom 8.3041966168932024 0.8576482204001671 10.1804613601274934 N
atom 8.3262033736795136 0.9453750810991596 4.6425827562286619 N
atom 0.0387867031359458 9.6573761224087153 15.4544566900880334 N
atom 16.5829199932224469 9.6343396184696104 10.0525487346006521 N
atom 0.1101292124296381 9.6663417466117689 4.6920223470098392 N
atom 1.8140263278296305 6.6329717432516677 15.5004065673116624 N
atom 1.7429683016733417 6.7143948062556609 10.1032976448604188 N
atom 1.6703213993344233 6.7664163768022689 4.6986042036511577 N
atom 3.3323568657274771 3.8098501117656536 15.6087171100124191 N
atom 11.6466618654148064 12.4541791937958131 4.8710537354479255 N
atom 13.2246828542068542 9.6106069957309970 15.5072589514707815 N
atom 13.3685692400309009 9.6254732291007592 10.1380443219043279 N
atom 13.4465343748611907 9.5104098911390356 4.7033701056290953 N
atom 14.9555071404629913 6.7221021100257916 15.6079829469885176 N
atom 15.0560618044100210 6.7932046414317346 10.1076407425914727 N
atom 15.0107011387415596 6.7679057611335915 4.6510176200461490 N
atom 6.6420937744981670 15.2668398510303103 15.6155554849651104 N
atom 6.6214789688839693 15.2765864823849817 10.2347394394264679 N
atom 6.7364797435026169 15.3886875918076544 4.7939501285278512 N
atom 8.3830914497435849 12.4639926744641425 15.5762970723604184 N
atom 8.3020676278143988 12.4746131189003115 10.0969197912447690 N
atom 13.3193291595466068 15.3100639922287201 15.3833604247577398 N
atom 13.2329808121561374 15.3422669904659834 10.1794592807636501 N
atom 13.3812320271140148 15.3643174661792017 4.7577881677429064 N
atom 14.8677448364788418 12.3676053110467343 15.5726332459587908 N
atom 14.9466597757318862 12.4300094368156753 10.1131758559143208 N
atom 14.9444131779618417 12.5242703294044926 4.6521628711983105 N
atom 10.0118412331264484 15.2472738354094002 15.6346332040146887 N
atom 10.0249585788294997 15.3243937642370156 10.2715990867697986 N
atom 10.0801825255681106 15.3920446526566472 4.9164970126658032 N
atom 11.5422821017612378 12.4523979286260307 15.6038927230229287 N
atom 11.5684713688360308 12.5729310743833018 9.9804680239381369 N
atom 14.8765828155829229 1.0091043916097795 10.1167235043365107 N
atom 14.8959929684789181 1.0541207625488049 4.7661685679032022 N
atom 3.3178616091348698 15.3684265315192974 15.5764957006605886 N
atom 3.2504599045021916 15.3159887634397229 10.1350323455470086 N
atom 3.3311303985850618 15.2286321805518501 4.6729523104794577 N
atom 5.0210998615445135 12.5061466025449164 15.4676309311788600 N
atom 4.8656766686537871 12.4913209639494855 10.1563416455845079 N
atom 5.0973716716015129 12.4380334425111627 4.8020355856269701 N
atom 6.6118280018299691 9.5849871889214420 15.5561665587463178 N
atom 6.5550399450973975 9.5908331089127898 10.1522222986331698 N
atom 6.6228147360408895 9.5880089184800266 4.7827522771418876 N
atom 8.3980681022916102 12.4474492800757144 4.7805276320370265 N
atom 10.0529218589515139 9.3747780153996860 15.6043987071730488 N
atom 9.9814360263607753 9.5778873068156258 10.0869031531293594 N
atom 9.9801137326263287 9.5746152207226114 4.6941521496576009 N
atom 11.6725405094519488 6.7039493198331517 15.4879960954938412 N
atom 11.6819919892995028 6.7484919928127791 10.0783062168612876 N
atom 11.5919277857101513 6.6725664939117300 4.7491775576029847 N
atom 13.3031832825470708 3.8719110353084933 15.4345698887715344 N
atom 13.3565303129247521 3.9910554852417461 10.1710705607819509 N
atom 13.2332978538798667 4.0018466568860163 4.6995380793202157 N
atom 15.0291599721909890 0.8938237179477910 15.6124315497689157 N
atom 6.6063462841516323 7.6458466293810270 1.9737720854650573 N
atom 8.3189055569742987 4.8693732341839713 12.8216422077439578 N
atom 8.2377245399941597 4.7806805960560581 7.3520257541567080 N
atom 8.2702415330067218 4.6974924850818702 2.0375025650509895 N
atom 9.9166050065500784 1.9295694144832920 12.7858798854416023 N
atom 9.9529644839690423 1.9111708865966328 7.4478848095996950 N
atom 9.9394966208070592 1.8713171530198542 2.0904263272552877 N
atom 16.5116414404616805 13.2487857929964026 12.8342601343894831 N
atom 0.0471444647665590 13.3389273860010533 7.3311744993651313 N
atom 0.1221430974437108 13.3704630619344105 2.1268054959989695 N
atom 1.7660789599051405 10.5894927949977351 12.6793924316507205 N
atom 1.6575924389608847 10.5436301204761733 7.4133844289528126 N
atom 1.5972979863471932 16.2106683885883527 12.7588983869556838 N
atom 1.5951122348648104 16.5422435835258739 7.4009722557933468 N
atom 1.7173755948902953 16.2629057131721666 2.1258921013272030 N
atom 3.3417548691123766 13.3694436864322164 12.7924842823608724 N
atom 3.4095734533822637 13.4433517737978345 7.5402772639693962 N
atom 3.3869879215270964 13.3690842816722704 2.0025333937668712 N
atom 4.9822085017071966 10.5269271281097900 12.8959499578211378 N
atom 4.9743039188121507 10.6059146071508508 7.4061111163155227 N
atom 5.0019724577362101 10.4600815423227225 2.0518143265165389 N
atom 6.6337129704659930 7.6419602519192829 12.7783388124458686 N
atom 6.4966325874712449 7.7012226409559599 7.3719991713359301 N
atom 0.0364681694781919 7.6606445695411320 7.4410246446157746 N
atom 0.0130385407617402 7.8219492211162445 1.9786411377543691 N
atom 1.6759278853811013 4.6464899178210093 12.9655061700276129 N
atom 1.6019559823341540 4.7408868199451355 7.4307231746417317 N
atom 1.5988754468188435 4.8576965529165843 1.9953609494159321 N
atom 3.2866673077148714 1.9247213422590808 12.7404575526728951 N
atom 3.3121468189074026 1.9125158787186061 7.4421688620307114 N
atom 3.3795141750043389 2.0090848339211287 2.1074746308272290 N
atom 16.4713495838546500 1.9282837487917395 12.8786990330975684 N
atom 16.5437021897004826 1.9447474710485593 7.3003300788311867 N
atom 16.5725266129108846 1.9267930957686403 2.0910750535774785 N
atom 1.7245465922524874 10.4992262786010286 2.0444257982624903 N
atom 3.3610694114905946 7.7064325363197455 12.8402230047536250 N
atom 3.2757965535679490 7.6114751340504219 7.3754716191003844 N
atom 3.2568169551998980 7.6443004379489112 1.9165501115561816 N
atom 5.1245060270624272 4.7123974292287425 12.8187475330431404 N
atom 4.9324646921004538 4.7561540305391574 7.5276878447948583 N
atom 4.8764486682844383 4.7929255860005577 1.9894999684585319 N
atom 6.6790525068325737 1.8363177245964000 12.8174065376340049 N
atom 6.8200783734904000 1.8780285174391340 7.4965604626459159 N
atom 6.6242075826653348 1.8883419466242652 1.9865970929159960 N
atom 0.1059089523863917 7.7025761271427893 12.7842776760331098 N
atom 14.9947316907893082 10.5024727320839979 2.0762743636484049 N
atom 8.2561301295776452 16.2432966134035439 12.8456467071734792 N
atom 8.2259322058974149 16.2407893614562688 7.5003551004627349 N
atom 8.2584805883290073 16.1919579444777995 2.0587429476231729 N
atom 9.9672252538349468 13.4508123602202350 12.7566889026363750 N
atom 9.9706518408899303 13.3057317430105115 7.3739942813611767 N
atom 10.0190556786043050 13.3834194282376373 2.1044051291081600 N
atom 11.5732607065335795 10.6097541998405820 12.8035099591012500 N
atom 11.7053076656650443 10.3974331286664210 7.4816737038862975 N
atom 11.6381749369622511 10.5485004496102324 2.1268910778924752 N
atom 13.3803082094375316 7.6863501669364309 12.9467442280901111 N
atom 13.3244887824376335 7.7174309960193668 7.4143025557690150 N
atom 15.0038216423467983 16.2141765469363577 12.7449823218343461 N
atom 14.8642205448300153 16.2960213275598136 7.4979682552654605 N
atom 14.9668044562583145 16.2463331995504383 2.1068215961639640 N
atom 11.6648780265090668 16.3280763599051610 12.7582003333797207 N
atom 11.6102765915127524 16.3087139012053086 7.5491180837064977 N
atom 11.6211635806557361 16.2913355691092399 2.0737607118105252 N
atom 13.2618617101656024 13.4291244414397788 12.6829541719268217 N
atom 13.2740957884508219 13.3831645417315759 7.4395198255382127 N
atom 13.2552326503024140 13.3720890627953715 2.0730239670886488 N
atom 14.9165392365369627 10.5805788934672549 12.8255080974044784 N
atom 14.9849582607455289 10.5861276688561841 7.3362928012559099 N
atom 8.2394128378071585 10.4174694159875116 7.4143317304896401 N
atom 8.2628601635412000 10.5150078292075069 2.0828139365317688 N
atom 10.0748499728518723 7.5790737405354811 12.8404262597371375 N
atom 9.9267102524248223 7.6470693422560547 7.4226042186687788 N
atom 9.9750207217599627 7.5002452181009129 2.0626924306996801 N
atom 11.6305629426150308 4.8099102281364896 12.8415773027085311 N
atom 11.6001428411375240 4.9263113927399500 7.4791319308800555 N
atom 11.6153398922809359 4.6790432934498503 1.9454289481528888 N
atom 13.3011195010288592 1.9029569448287886 12.8059020702896493 N
atom 13.1081835448108901 1.9207544703043351 7.4441486059650295 N
atom 13.2639913558955627 1.9120884115977070 1.9826227357191277 N
atom 13.4144368369043079 7.6055504357748402 2.0196540529822560 N
atom 14.9580719645300704 4.8286098121505443 12.8193065298224482 N
atom 14.7944248560750307 4.7871795083160045 7.4808723950164069 N
atom 14.8235912882516541 4.7775106359250312 1.9636562012622454 N
atom 4.9035223459613002 16.2587593770447043 12.9081120872082344 N
atom 4.9217629210140883 16.2201723592283038 7.5393514704223499 N
atom 4.9494012447100806 16.3054241992369100 2.0557615192710150 N
atom 6.6991985992013632 13.4981665258271555 12.9354564693353726 N
atom 6.6763146890659248 13.4077319317388426 7.5091482520762858 N
atom 6.5379740639854376 13.5116968205053638 2.0973852304637575 N
atom 8.3170330457352932 10.6119652864451659 12.8295918546786485 N
