#===============================================================================
# Created using the Atomic Simulation Environment (ASE)

# Thu May 11 08:59:46 2023

#=======================================================
lattice_vector 16.0100851999999989 0.0000000000000000 0.0000000000000000 
lattice_vector 0.0000000000000000 16.6381685999439100 0.0000000000000000 
lattice_vector 0.0000000000000000 0.0000000000000000 15.6179127599999905 
atom 15.9539827385228552 14.7729098538539088 2.6228535842490790 Ga
atom 1.6363153164394928 11.9208231833993761 13.0193626265356048 Ga
atom 1.4366730799551530 12.0432391146558704 7.8275424516109657 Ga
atom 1.6250396161467475 11.9863077841556009 2.4565296380413915 Ga
atom 3.1922073752375977 9.1866337032145200 12.9541641381803743 Ga
atom 3.0975369160373911 9.2514081193425071 7.7589460774853514 Ga
atom 3.1872606537268631 9.2004065247896136 2.5300184755793658 Ga
atom 4.8145589914094167 6.4992244919750659 12.9651118576700064 Ga
atom 4.7281092075315660 6.4738823677404991 7.7807427292139852 Ga
atom 4.7973059576029602 6.5423726508765618 2.6202188502886532 Ga
atom 6.4040026547499567 3.6691349633276986 12.9902851404546524 Ga
atom 6.4099680099020029 3.6978624249841201 7.7050226859910032 Ga
atom 7.9993809453196052 6.4740279538758818 12.9809552450326944 Ga
atom 8.0473513053694052 6.4181231627728801 7.6440354830716792 Ga
atom 8.0370532670900801 6.4832580808698435 2.5194800386725018 Ga
atom 9.6309097963536843 3.6716153373240807 12.9883338887395592 Ga
atom 9.6174085817724251 3.6656785157260972 7.7253767125147066 Ga
atom 9.6846898478890342 3.6820067804927672 2.6210000237104412 Ga
atom 11.1493419581251150 0.8538001105890044 13.1617673600002174 Ga
atom 11.1973973904604840 1.0061752875127730 7.8424158070208563 Ga
atom 11.3196249193209937 0.9188687976954174 2.7137555378805285 Ga
atom 0.1510235730469222 14.8114776605889986 13.0147567950579273 Ga
atom 15.9362343045498296 14.7534287097212697 7.8642638264409497 Ga
atom 3.2442571487429541 3.7360062147252422 7.7353157663702774 Ga
atom 3.2456145676366419 3.6892609864352623 2.6260355666490778 Ga
atom 4.8091543256575289 0.8245501399798936 13.0743813047705117 Ga
atom 4.7852838788057008 0.9170370012150526 7.7130919367192732 Ga
atom 4.7385157701585312 0.9928069552284470 2.5728288055298303 Ga
atom 0.0372998490886437 3.7191788911468500 13.0189717554544586 Ga
atom 0.0821161689903479 3.6655139218657204 7.7741331198571766 Ga
atom 0.0141676588377558 3.5763641492813578 2.5866602507980621 Ga
atom 1.6544589276229618 0.9435335050751864 12.9677476418330802 Ga
atom 1.5728081912936518 0.9290293006748960 7.8097152999935870 Ga
atom 1.6647736578027426 0.9075942702305750 2.6318142715204242 Ga
atom 6.3118980030637539 3.6994975095897518 2.6427408907151433 Ga
atom 8.0337413982822614 0.8550077303525192 13.0450471099532415 Ga
atom 7.8888952617479999 0.9104871359823343 7.8019960343672672 Ga
atom 8.1631612382667438 0.9468716340171589 2.5855629590423566 Ga
atom 0.0735565851626143 9.2803528072177652 13.0495094981191002 Ga
atom 15.9805833448941268 9.1367885707376786 7.6952292789960559 Ga
atom 15.9007259144544619 9.2518120834988977 2.5533418157301706 Ga
atom 1.6704056371478933 6.4883379704455573 12.9350769259555030 Ga
atom 1.6398419816233094 6.4472315584551589 7.7384420242510545 Ga
atom 1.5071555122801210 6.3667762691972101 2.5974789546353225 Ga
atom 3.2355305679793442 3.5933551934468801 12.9892588886775542 Ga
atom 11.1573438085632421 12.0056132020477122 2.7829731953093386 Ga
atom 12.7636290310087492 9.2974090857994511 13.0728069772103730 Ga
atom 12.7605898180282136 9.3676532122294223 7.8072724103967310 Ga
atom 12.8193325354928565 9.3740307040029247 2.6097421386710509 Ga
atom 14.4116733472976026 6.4341100714655735 13.0426845197247445 Ga
atom 14.3692785599397066 6.4747616319372696 7.8630677540250584 Ga
atom 14.3762366217836739 6.4474837322403600 2.6914255328387378 Ga
atom 6.4220589105360597 14.7622251771701496 13.0277911632092653 Ga
atom 6.3488405526311258 14.7790248804858777 7.7136522405700667 Ga
atom 6.4309862135006721 14.8208631750493325 2.6851291521629195 Ga
atom 8.0593096639955490 12.1967487438763218 12.9950416389222152 Ga
atom 8.1012910941352221 12.0268907272851209 7.8164184821827432 Ga
atom 12.7553115148114582 14.6921866569068218 13.0785922372850081 Ga
atom 12.8115219608856776 14.7535797988816686 7.8107986704321029 Ga
atom 12.7769668529063090 14.8192841054756084 2.5136532861585623 Ga
atom 14.3591487694981534 12.1105017454508062 12.9364001641703972 Ga
atom 14.5035896289364103 12.0490249823388069 7.8733406034679572 Ga
atom 14.4262890810981368 11.8881502387633660 2.6106338557677522 Ga
atom 9.6037454853018822 14.9289358832594612 13.0327216105936596 Ga
atom 9.5288417315583782 14.8228117982547314 7.7487833933710872 Ga
atom 9.6095762201875807 14.8340138903474656 2.6226265385523058 Ga
atom 11.0925567370475804 11.9970518868528959 12.9238240814176937 Ga
atom 11.0837266019488432 11.9909625893653882 7.8394350026293891 Ga
atom 14.4403172984084982 0.8733968676966023 7.8053867704889583 Ga
atom 14.4412137369673950 1.0001553686576612 2.6526618877125330 Ga
atom 3.2126652040944794 14.7619094989802644 13.0020216604923107 Ga
atom 3.1879061475488171 14.7020138080568845 7.8727906193131014 Ga
atom 3.2168250330253514 14.8119369825586542 2.6437416692379792 Ga
atom 4.8026778416461733 12.0208929079896016 12.9579867486674587 Ga
atom 4.7678893160724591 12.0671186242206083 7.7840381809422050 Ga
atom 4.8465708767180855 12.0831943116690859 2.6472848522963672 Ga
atom 6.4577216608693364 9.2816207916652171 12.9254745065219954 Ga
atom 6.4340364956549481 9.3131728202410073 7.8843586825143390 Ga
atom 6.3263217873838666 9.2271235312043363 2.6327882006623753 Ga
atom 8.0915491549523360 11.9520133309109866 2.5962343201248230 Ga
atom 9.6125564091887021 9.2511182109284924 13.0339009340120935 Ga
atom 9.5655648398934261 9.2298413742992924 7.8268003854845851 Ga
atom 9.4816612123550765 9.2232336077243975 2.6424646643636756 Ga
atom 11.1203131087795875 6.4641319594308229 13.0424559008754439 Ga
atom 11.2464310810762385 6.4916960678384799 7.8213050308194774 Ga
atom 11.2600225721578262 6.6134289873280476 2.6902598556521640 Ga
atom 12.7202301971900926 3.5418033773516067 13.0387668459554114 Ga
atom 12.9316977179863066 3.7545105853627749 7.7263954873719376 Ga
atom 12.8951647907748619 3.6892412026854542 2.6230439299895831 Ga
atom 14.3732089782055912 0.8700424095325290 13.0760411625298474 Ga
atom 6.4674671350297244 7.3172125551590295 5.2955047844343905 Ga
atom 7.9713561106264805 4.6814927880850723 15.6144517639525890 Ga
atom 8.0985986308829911 4.6549403929989737 10.3660654639697132 Ga
atom 8.0294527816996499 4.5525096059350716 5.1847873515674561 Ga
atom 9.6081001629463625 1.9182174354984436 15.5775468280945191 Ga
atom 9.5489216175450462 1.8235242875239301 10.4398702563000381 Ga
atom 9.5951894504859307 1.8490966693418807 5.1925819105411559 Ga
atom 15.8799346615290826 12.9718055285599476 15.5816407693457304 Ga
atom 15.9447945139474676 12.9723130853074622 10.4408918284066576 Ga
atom 15.9457100287150020 12.8351984627483162 5.1021400811056319 Ga
atom 1.6149969384351379 10.1074360174663642 0.0645840332075546 Ga
atom 1.5339239659070691 10.1601871995285276 10.3931993991091716 Ga
atom 1.6246033818023855 15.8026049340410815 0.1100665901103115 Ga
atom 1.5593976816126649 15.6653411223013919 10.2677227375706792 Ga
atom 1.6084417996659122 15.7131721546828196 5.2336667351210568 Ga
atom 3.0848944796313806 13.0227733691231045 15.5818506923016802 Ga
atom 3.2419493235984533 12.9377318738601108 10.4608803851700269 Ga
atom 3.1735875010646843 12.8740245940656113 5.1864819248879304 Ga
atom 4.7784280583398733 10.2665015897573824 15.5495804448574209 Ga
atom 4.8210454070869266 10.1987703980076088 10.3441309331164817 Ga
atom 4.7795693974672000 10.0792546061469821 5.1836588392546146 Ga
atom 6.3163305535471510 7.3813950263634736 15.5606265147615428 Ga
atom 6.4504688693912557 7.3590010256814011 10.2742978562905272 Ga
atom 0.0034296476372734 7.4413178906845792 10.3352493718011331 Ga
atom 15.9055016816870403 7.4735909613386626 5.1735976899822811 Ga
atom 1.6089846294412347 4.7529579596786942 15.5413107879716126 Ga
atom 1.7564795092637808 4.7100846919339636 10.3968417465784455 Ga
atom 1.6119132989920137 4.6582949092528834 5.1941916601997855 Ga
atom 3.2168884629102483 1.8697140054982080 15.5179649117730456 Ga
atom 3.2399289651438123 1.8503323167303234 10.3088177689371321 Ga
atom 3.1314393504200657 1.8304433546462908 5.2052555412688930 Ga
atom 15.9990004076522236 1.8873028421656322 15.5945214184582639 Ga
atom 0.0467052412820593 1.8775654818701510 10.4414188103106227 Ga
atom 0.0156997583927934 1.8194040357132848 5.2135526632147915 Ga
atom 1.5792380182046366 10.1516983808783738 5.2454899539501154 Ga
atom 3.2784053443653396 7.3703948637084293 0.0115660352735200 Ga
atom 3.2749524766961597 7.3610996879825947 10.3466024735155049 Ga
atom 3.2214527889304190 7.3227589160855153 5.1573605987879807 Ga
atom 4.8244317622034307 4.4851959334877609 15.6100952453066277 Ga
atom 4.9876177319062327 4.5110946207978495 10.4537241343041618 Ga
atom 4.8502117305329921 4.6300872049680937 5.2227070250618333 Ga
atom 6.3993063687712413 1.9309518162683172 0.0936153486980342 Ga
atom 6.4368769862161184 1.9005541828849315 10.4422654918555331 Ga
atom 6.3621994733603904 1.8483007919160215 5.1142915949278152 Ga
atom 0.0195944990118510 7.5174173952567527 0.0262525328221755 Ga
atom 14.3670898945446233 10.1760427183369835 5.3779125655766915 Ga
atom 7.9917949575994234 15.7658775905762667 0.0157676857708765 Ga
atom 7.9694215210406858 15.6981913446191008 10.4565297401557089 Ga
atom 7.9560051100061120 15.6504041289709850 5.1192042227127699 Ga
atom 9.5739077232417138 12.9526584900035289 0.0033920849671000 Ga
atom 9.6112142542300329 12.9603819295555667 10.4904503871977219 Ga
atom 9.5537272465048400 13.0072681642122134 5.2139579959963438 Ga
atom 11.2441210738178015 10.1787676055202390 0.0375034056111495 Ga
atom 11.2450655227729079 10.1915274978682220 10.4049976549758387 Ga
atom 11.2945190833436779 10.1923941616770986 5.2916597774880767 Ga
atom 12.7700664620699591 7.3542443459881923 0.1662800772176173 Ga
atom 12.8739440748710727 7.3847211603011411 10.4224230398104858 Ga
atom 14.5159861541853914 15.6907130352712691 0.0039009695379696 Ga
atom 14.3959168694314670 15.7985267518552153 10.4539168865401244 Ga
atom 14.3748113886307713 15.6975454610021057 5.1338128298945760 Ga
atom 11.2530252209339778 15.7209573741254722 0.0369229835952304 Ga
atom 11.2943626090852902 15.7939598316483778 10.3951887775354308 Ga
atom 11.1896800667015004 15.6745146045646706 5.2043235225884272 Ga
atom 12.7487354699641102 12.9194487871756110 0.0851602995774676 Ga
atom 12.8348558041402274 12.9816616753607246 10.3935695745552099 Ga
atom 12.8471736801327250 12.8822411617831225 5.1756203642929792 Ga
atom 14.3542681703222854 10.2501948155890101 15.5368297297588001 Ga
atom 14.3473655820533921 10.1439117513239783 10.5054917260850864 Ga
atom 8.0540279738686440 10.1758139115245356 10.5488447839483666 Ga
atom 8.0070828365751439 10.1575454163724714 5.2093792889906565 Ga
atom 9.6037199783460174 7.3794449877251136 15.5890457743894810 Ga
atom 9.5218253590869164 7.3641178417294837 10.3882739914873188 Ga
atom 9.5671879431079727 7.4419644492693138 5.2139226427622285 Ga
atom 11.3240747757205913 4.5875318087479737 0.0879589536010217 Ga
atom 11.2192586647904022 4.6868206459781652 10.4275567729133609 Ga
atom 11.2925738502420359 4.5780789416332883 5.0588503431973484 Ga
atom 12.7670340715084993 1.8477724547812500 0.0533689916988891 Ga
atom 12.7048745877384945 1.8940017625053680 10.4486990845924073 Ga
atom 12.7500481658826672 1.6972794533829774 5.2663807516617611 Ga
atom 12.7971781963746771 7.2759845326829495 5.2387887726995173 Ga
atom 14.4718121131961599 4.7173162500981940 0.0346527703768882 Ga
atom 14.3896643359685008 4.5418333743011896 10.4787915046394833 Ga
atom 14.5666254658907306 4.6336635602047069 5.2127168103276729 Ga
atom 4.7921979156580568 15.6679534063786789 0.0201196288783210 Ga
atom 4.7915561154932416 15.6443891680581793 10.3986354953576061 Ga
atom 8.0025403944147886 10.2443176732923948 15.5262724194714714 Ga
atom 6.3746318635071129 12.8206220806768592 5.2774169680515204 Ga
atom 6.4526700755786166 12.9231753801642579 10.3526572441069931 Ga
atom 6.3400143163393947 12.9934443644545343 0.1498942811774062 Ga
atom 4.8131505451004539 15.7109934565207325 5.2453951073609408 Ga
atom 3.1275071924784705 9.1782039389078403 9.7759022358429171 N
atom 3.2342674065360977 9.1948231512521321 14.9601336028870158 N
atom 1.5374789486786860 11.9926069694075128 4.4380321709837727 N
atom 1.6255642616155874 12.0326485861625603 9.7018608132359798 N
atom 1.4836140572798524 11.9799595606796512 14.9594299738517336 N
atom 0.0636725095725123 14.7336534299159521 4.5869265627539342 N
atom 3.2084212794504885 9.1565244262645695 4.5944778664711157 N
atom 4.8458023985459739 6.4710071251731911 14.9217291821327365 N
atom 4.8914223639891778 6.3120022189079661 9.7344213360062799 N
atom 4.7910145942706928 6.5271213153290004 4.6289923024942006 N
atom 6.4919544570596637 3.7173656243384610 14.9044037685395647 N
atom 6.5547435862810906 3.6332349190584714 9.6883831266688407 N
atom 8.0227006227937743 6.4726675325316902 15.0264051664199858 N
atom 8.0038667273905872 6.4394811114995800 9.5329459358306465 N
atom 8.0049664113913064 6.4506319774451120 4.5237484543062019 N
atom 9.6759068616684516 3.7177902411507193 15.0290707427391705 N
atom 9.7608594025109205 3.6449247560175984 9.7990104800547471 N
atom 9.5865367381083200 3.6828531656371974 4.5296259761257973 N
atom 11.2092675380161690 0.9416492180007119 14.9436306019146983 N
atom 11.0804228903940665 0.9287373650567677 9.7534108844775620 N
atom 11.1858769226142982 0.9824054457030447 4.6501458047760087 N
atom 0.0549615826492142 14.8531522902075199 14.9710373430161940 N
atom 15.8975032012267956 14.8179286524917142 9.8413070746419855 N
atom 3.2504216107520527 3.7988140872674188 9.7228320368980743 N
atom 3.0899821807537515 3.7043786263994862 4.5838467378312879 N
atom 4.8464591234109946 0.8775202134527319 15.0049142776620776 N
atom 4.7836553970192028 0.8951015895799973 9.6444455688490773 N
atom 4.7588383657421174 0.9382191967052975 4.5717324058894953 N
atom 0.0470455575122814 3.7785482676683966 14.9792409506044617 N
atom 0.0433387969687257 3.6760913576716860 9.6215822938055418 N
atom 0.0521080432671076 3.6235287193404240 4.5235432906536559 N
atom 1.5626228158333830 0.9821968784049313 14.9576207671970351 N
atom 1.5870067998948882 0.8471135303291893 9.7688669176400555 N
atom 1.5767122162619802 0.8830057375597961 4.5903056590767033 N
atom 6.3728418071908637 3.6683583130358595 4.5429963518002392 N
atom 7.8989629895596876 0.9662028216475340 14.9186460713088547 N
atom 8.0089809280616056 0.8949629607157785 9.7280911187640360 N
atom 8.0392501178411884 0.9498167742764770 4.4954876530729617 N
atom 0.0218008673004034 9.3239493988677822 14.9743445677477336 N
atom 15.8548623917491724 9.2302638111936766 9.8073884828918327 N
atom 15.9171190395672859 9.3642163564167546 4.5435592016839523 N
atom 1.6338919736822601 6.5340356688532051 14.9503263524839003 N
atom 1.6322143309643975 6.5044329048477758 9.7507024085671539 N
atom 1.4059078644544685 6.4699998094388889 4.4899360940031183 N
atom 3.2156116044744034 3.7120814669189737 14.9691525889537775 N
atom 11.1367142478050773 11.9837686740217215 4.6341861885838949 N
atom 12.7904700583304560 9.2441401402521688 14.9369405065142420 N
atom 12.7546543808436112 9.1405780661908533 9.7245711369307770 N
atom 12.8552757938358848 9.1945245577750008 4.6733669300202081 N
atom 14.4041646472297913 6.5485790615366390 15.0547683916513542 N
atom 14.4569216010761252 6.3628811628448938 9.7895912582228348 N
atom 14.3164714726966285 6.4864214096381101 4.6558755806058247 N
atom 6.4058241280066941 14.7230737289559386 15.0890642962377370 N
atom 6.3906033468071772 14.7647619213561203 9.7435201259065813 N
atom 6.4146262135262990 14.7223029688749367 4.7090503593726938 N
atom 7.9889815904598951 12.1302880419079955 14.9093606838615322 N
atom 8.1561969960750424 12.0677892374046536 9.8263129579844311 N
atom 12.8676902720617896 14.8027135454703043 15.1424727527463592 N
atom 12.8561305924018665 14.8579658220323410 9.6607169598678624 N
atom 12.8127035605351924 14.7164885693864740 4.5071911761419434 N
atom 14.3454601606193517 12.0692720902189983 14.8639939576947899 N
atom 14.4280873706615385 12.1389738636074878 9.8521261161722542 N
atom 14.3367240287686872 11.9900043486910324 4.6312449606805455 N
atom 9.5814475119678590 14.8776939448612282 15.0141432484314574 N
atom 9.6770312772175426 14.8489888398420753 9.7780712963025067 N
atom 9.5523392704442589 14.7355429123204651 4.5209841151459331 N
atom 11.1238911240073506 12.0876264900362926 14.8733002000433814 N
atom 11.1656523641262204 12.0794709900149240 9.8878659978263563 N
atom 14.3672460088316125 1.0407877395967660 9.8305799161333809 N
atom 14.3483828377803189 0.9370593820154778 4.5279365037925805 N
atom 3.1950477431964166 14.7719954692453257 14.9221671464408292 N
atom 3.1442432888778504 14.7201065881134987 9.7224308614552779 N
atom 3.1146068460270766 14.8416316315990624 4.6529646804400748 N
atom 4.7428551051204684 12.0857849877769432 14.9813445489912809 N
atom 4.8337520330413266 12.0778440500913096 9.6248996083354701 N
atom 4.7000153079920839 12.0094546920617731 4.5744418583972024 N
atom 6.3319655897974991 9.2436182533538513 14.9481819917030521 N
atom 6.4890846940512814 9.2978294497372538 9.8317333279233594 N
atom 6.4127595524814716 9.1677984198819598 4.5926984236158610 N
atom 8.0055660615896400 11.9965720309230672 4.5345123961095055 N
atom 9.6151250277978129 9.1897079558365427 15.0539447062992995 N
atom 9.6123506583065517 9.2307490776210024 9.7895538763998964 N
atom 9.6425011041793098 9.2358662294078613 4.5671083682251510 N
atom 11.2759664841108886 6.3757724107091471 15.0189096746398576 N
atom 11.1808150187604287 6.6399613089355887 9.7440250848338668 N
atom 11.2351987984141104 6.5183532615060686 4.6127183102822142 N
atom 12.7872530403125992 3.7442953538403740 15.0903532790971848 N
atom 12.8399152062213613 3.8122866764279086 9.6909910466702787 N
atom 12.9694457133179917 3.5955765652165694 4.5294834416289111 N
atom 14.3769163380311316 0.9155865916093996 14.9641047140862398 N
atom 6.3969154840488720 7.3907543126653970 1.9130303078227271 N
atom 7.9732176127903847 4.7034808873668892 12.3679584980283988 N
atom 8.0921384260782023 4.6507832667508335 6.9928528709941169 N
atom 8.0048402605352766 4.6175485355628059 1.9426247450284091 N
atom 9.4931039651202820 1.7359383408198830 12.3852820294895665 N
atom 9.5547819056357763 1.8637282055947220 7.1354903286342948 N
atom 9.6978577441095037 1.8867633452255173 1.9318959395777950 N
atom 0.0549126482142864 12.9507627449770482 12.3701318284745323 N
atom 15.8928942403894258 12.9061725146261992 7.0823640770061784 N
atom 15.9043464766595974 12.7790000148515723 1.9502483054395647 N
atom 1.6823944900851753 10.0912154934225136 12.3256482261099727 N
atom 1.5270366696476798 10.2088448578423794 7.1355276355580965 N
atom 1.6868934722568696 15.8653088713245580 12.2896031111846149 N
atom 1.5421048732200460 15.7853341444811939 7.2233393501347525 N
atom 1.6485461657195923 15.6498106084754358 2.0616989810394974 N
atom 3.2149802914823100 12.8674613983748038 12.3666312047105418 N
atom 3.0511787165178341 12.9191582103233369 7.1307616917952998 N
atom 3.1623111771336516 12.9306097427077358 1.9658937291419587 N
atom 4.8030879510713183 10.2310281151279199 12.4355510790454140 N
atom 4.7580014247331111 10.1786690337181085 7.1269748638420500 N
atom 4.7412001976071867 10.2252454175057625 1.9403727220809872 N
atom 6.4102913377323576 7.4168581230573958 12.3467079233438728 N
atom 6.3747766164830564 7.4486808311698338 7.2407399130289525 N
atom 15.9736975099136380 7.2333299104196245 7.0878160119935725 N
atom 15.8842162366812207 7.3119909205588289 1.9909876752902753 N
atom 1.7301721881450840 4.6767216589304166 12.3572967090106687 N
atom 1.6374798713799081 4.6188140496174102 7.1415152095792243 N
atom 1.6205393209953305 4.5809759007302473 1.8972308882218509 N
atom 3.2185808507774527 1.8327198008747470 12.3242319284972393 N
atom 3.1129816677322601 1.7838219377207987 7.1455822744288424 N
atom 3.1280287544990402 1.8217965776037814 1.8786539172924959 N
atom 0.0488732048569695 1.9107018875022741 12.3490765719265916 N
atom 0.0757976994496819 1.8043314889849598 7.1511108461291686 N
atom 0.0566198192402151 1.7535828778303848 1.9648936671353816 N
atom 1.5521499309366471 10.1130569536682025 2.0340172766728899 N
atom 3.2683105532982317 7.4096750772068241 12.4014759052206713 N
atom 3.1001278497719027 7.4245352801539433 7.0320221987360911 N
atom 3.0824736932174202 7.4024031230630065 1.9787998211105164 N
atom 4.8602790680402563 4.4690527476596991 12.3454998862193115 N
atom 4.8372670308420931 4.6506033715872235 7.0884269452261748 N
atom 4.8783684739130049 4.5517763511031051 2.0388796611497457 N
atom 6.4870929964883777 1.9100877715280893 12.3997772683710572 N
atom 6.2996257530249595 1.8065190063810173 7.1467074288206289 N
atom 6.4563272433216419 1.8214030213411188 1.9815076606671937 N
atom 0.0286777929872394 7.3266554643724007 12.4010649957542896 N
atom 14.4128631376516303 10.0926060638389909 1.8964670429748491 N
atom 8.0327637509307177 15.6725106538679011 12.4092825216735978 N
atom 8.0102611651832198 15.7071882266929297 7.0228006956020401 N
atom 7.9756585168037031 15.7137571104355018 2.0699083351650471 N
atom 9.5737965664305307 13.0990657195409614 12.3597676208930345 N
atom 9.5806035221091452 12.9791353807181409 7.1577067549718736 N
atom 9.7550029770636186 12.9657901172821983 1.9143704486773863 N
atom 11.1791188425461989 10.1070069726913765 12.3089404299249470 N
atom 11.2177187066962514 10.1610870099822410 7.1997261671819466 N
atom 11.2160131363459943 10.2041814273623981 1.9639927096796679 N
atom 12.8223635316535454 7.3261817095423636 12.4277757431875333 N
atom 12.8345021718717813 7.5582661394539903 7.2094196294563533 N
atom 14.4486339888882043 15.6909035223249553 12.5005558014193952 N
atom 14.3788551220274226 15.7492051552293457 7.1308649546440170 N
atom 14.3115969424490270 15.7226576255698482 1.8832594709242256 N
atom 11.2708005771358266 15.7753473755197131 12.4289476195670741 N
atom 11.1872008815608712 15.7458092462730477 7.1248585331851837 N
atom 11.2838258221191747 15.7970336156916531 2.0671665353146524 N
atom 12.7185445396593177 12.8281073946306137 12.3280462066015648 N
atom 12.7689438651786524 12.8626103983222055 7.2127426642497081 N
atom 12.7522379541309885 12.9224099183022343 2.0149340260529423 N
atom 14.4266650369219338 10.2403327574743717 12.4167651900861138 N
atom 14.4709624376928581 10.1608556093693192 7.2397254341780206 N
atom 8.0261130025111029 10.2692782191454306 7.1863027503265506 N
atom 7.9436016528308366 10.2070973714378130 1.9256306108143921 N
atom 9.5699644343674724 7.3070204647878363 12.5172715853363954 N
atom 9.6273212468931497 7.4228363088297957 7.2712987111732206 N
atom 9.5472564714727710 7.4088734241620182 1.8670795147779704 N
atom 11.2058118657229979 4.6184883553716549 12.4324645122190454 N
atom 11.2056665572941192 4.7041524337603553 7.0934199815811834 N
atom 11.2777908530203170 4.6304034347545278 2.0595148756468236 N
atom 12.6634807576771671 1.8048949532455432 12.3918502773835737 N
atom 12.8299857514269124 1.8733018883970942 7.2241475690125121 N
atom 12.9136681916487106 1.8885415584607788 2.0204418634888155 N
atom 12.8523611245770830 7.4845946476733030 2.1582587304482832 N
atom 14.4478360789177795 4.5831094570022719 12.5351377159886326 N
atom 14.5614192782825711 4.7135340096622018 7.1607971272743258 N
atom 14.4015245473262166 4.5938952236390405 1.8944492438098315 N
atom 4.8975909027303244 15.6753875605127888 12.3175693266515989 N
atom 4.7536476532215080 15.6578041440949942 7.1197531958956572 N
atom 4.7913716398299062 15.7318511761929489 2.0353496467126111 N
atom 6.3890472590986116 12.9688700894463835 12.2707137630366354 N
atom 6.4474774048347081 12.9441025956242068 7.1160016170807925 N
atom 6.5102514460216812 12.9408942707889434 1.9452775539670739 N
atom 8.1028542838501814 10.3125122879608337 12.5629486422890064 N
