 # kommentar
 lattice_vector  0.318926000000E+01  0.000000000000E+00  0.000000000000E+00
 lattice_vector -0.159463000000E+01  0.276198017927E+01  0.000000000000E+00
 lattice_vector  0.000000000000E+00  0.000000000000E+00  0.518523000000E+01
 atom_frac  0.333333333333E+00  0.666666666667E+00  0.999828947334E+00 Ga
 velocity  0.000000000000E+00 -0.000000000000E+00 -0.000000000000E+00
 atom_frac  0.666666666667E+00  0.333333333333E+00  0.499828947334E+00 Ga
 velocity  0.000000000000E+00 -0.000000000000E+00 -0.000000000000E+00
 atom_frac  0.333333333333E+00  0.666666666667E+00  0.376803872715E+00 N
 velocity  0.000000000000E+00 -0.000000000000E+00 -0.000000000000E+00
 atom_frac  0.666666666667E+00  0.333333333333E+00  0.876803872715E+00 N
 velocity  0.000000000000E+00 -0.000000000000E+00 -0.000000000000E+00
