#===============================================================================
# Created using the Atomic Simulation Environment (ASE)

# Thu May 11 08:59:48 2023

#=======================================================
lattice_vector 16.0100851999999989 0.0000000000000000 0.0000000000000000 
lattice_vector 0.0000000000000000 16.6381685999439100 0.0000000000000000 
lattice_vector 0.0000000000000000 0.0000000000000000 15.6179127599999905 
atom 15.9717622698420829 14.6778969631714364 2.6521824650560717 Ga
atom 1.6722490780026347 12.0173524679058925 13.0218985225159205 Ga
atom 1.6758440530870065 11.9831619953398487 7.6938320827522020 Ga
atom 1.7001675504227129 12.0110201372298864 2.5385630136654944 Ga
atom 3.2096810686754007 9.2088164418096472 13.0537423061034623 Ga
atom 3.2063324820176633 9.2235014347215767 7.7074908686704440 Ga
atom 3.3233667673670610 9.0903286885341288 2.6159050624380153 Ga
atom 4.8242306396851378 6.4905174879980159 12.9425823498835300 Ga
atom 4.9338194836543394 6.4558037192563154 7.8508711437254517 Ga
atom 4.8739546251681150 6.4459855257200367 2.5518915183702178 Ga
atom 6.4220754654556664 3.6904953375932386 13.1044548966920580 Ga
atom 6.3533963066379453 3.7801332783151746 7.7469828519877737 Ga
atom 7.9975785333603522 6.5364976651752684 13.0312236540729494 Ga
atom 8.1877273447234362 6.5080951124523603 7.7309133621228021 Ga
atom 8.0353388707927511 6.5598813438988737 2.4924619206766341 Ga
atom 9.5858316979182057 3.7717639299784174 13.0231015872528317 Ga
atom 9.5333135020124899 3.6937176939356582 7.8585121340778690 Ga
atom 9.4426009036189136 3.6807840191043533 2.6085288559962394 Ga
atom 11.0347289980263863 0.8633035675010078 12.7857902459957007 Ga
atom 11.0814327096283787 0.9719100184096893 7.8309329886864196 Ga
atom 11.3329759127812881 0.9180308837372652 2.5176741696989784 Ga
atom 15.9134647286608217 14.7836014090305987 12.9163094161084615 Ga
atom 0.0674003334021806 14.8015387899821071 7.8539392332936302 Ga
atom 3.1619388358837348 3.7701851100797139 7.8492785997189261 Ga
atom 3.1435914633368096 3.6846414250783566 2.5600748019306834 Ga
atom 4.8301476768704266 0.9937271376003807 13.0723878283799593 Ga
atom 4.7258301436269754 0.9240363010691038 7.7563385285192945 Ga
atom 4.8891725645749462 0.8820441064664259 2.5915984891287276 Ga
atom 0.0027165716767220 3.7813487417118483 13.0477875944847312 Ga
atom 0.0192606485196980 3.7701673201580177 7.9324420057903948 Ga
atom 15.9720590168734109 3.6800487590061977 2.4612561414602272 Ga
atom 1.6057862216303092 0.9555408685162512 12.9425897517939994 Ga
atom 1.6467868406469324 0.9225500507718432 7.8269374487097423 Ga
atom 1.4754128973839280 0.8682662450336656 2.7039668200889206 Ga
atom 6.2999084789038093 3.7506377839536023 2.6449961116185547 Ga
atom 7.9186688359297905 0.9955222616366074 13.2433366966709620 Ga
atom 7.9674122661592159 0.9794705917111103 7.8364962067531927 Ga
atom 8.1609426772549352 0.8687301000796784 2.5823817209232049 Ga
atom 15.9797714540389926 9.1865326636042841 12.9587660402411764 Ga
atom 0.0995554039275387 9.2115791057111256 7.7929755585017144 Ga
atom 15.9424295796563218 9.1753225484037948 2.7217133821349448 Ga
atom 1.5408635342268902 6.4340574152491437 12.9134430649844951 Ga
atom 1.6354628977616303 6.4414970875608173 7.8111229909986237 Ga
atom 1.6230567516467567 6.4457005831153529 2.5275602493552309 Ga
atom 3.1527977691566358 3.7620428765819391 12.8706679348430804 Ga
atom 11.1447395959855715 12.1087487658543811 2.5596038602806326 Ga
atom 12.6904098511614105 9.1694415964625531 13.0054539091362251 Ga
atom 12.7613516095642279 9.1077370140931091 7.7418865184368233 Ga
atom 13.0310671895612220 9.1685706789997230 2.6684741319173364 Ga
atom 14.3143300484011515 6.4341223092908049 13.0544679819122802 Ga
atom 14.4334492328582691 6.4738023797193316 7.8259692292933423 Ga
atom 14.4062863752628427 6.4139775907490186 2.6221437084071257 Ga
atom 6.3522742678273083 14.7822593152698563 13.0962265745215003 Ga
atom 6.4859700714181807 14.9091886868846526 7.8309894993304692 Ga
atom 6.3966702417576604 14.6082037226043226 2.6927134029448596 Ga
atom 8.0719041707948005 11.9504025934161469 13.1076795185166528 Ga
atom 8.0075379758274359 11.9183208491248376 7.8172106699764852 Ga
atom 12.7756573819374797 14.7850605325276536 12.9888954951958073 Ga
atom 12.7666981104473187 14.7128408459573770 7.9313671881107286 Ga
atom 12.8538071722605203 14.7478466512430035 2.5872274811367841 Ga
atom 14.3367572680817776 12.1218006343232876 13.0726222917898713 Ga
atom 14.4935279288577590 11.9911809595483305 7.8906659963264749 Ga
atom 14.4304060976279622 12.1150861916147949 2.5253345174639308 Ga
atom 9.4642741002920197 14.7485985145303395 13.0817566091791200 Ga
atom 9.7198004224212653 14.7611048677868038 7.8057300622904426 Ga
atom 9.6524296317663261 14.8144352126237688 2.4846784116109490 Ga
atom 11.2720232801474154 11.9751514822087568 12.9497906823317415 Ga
atom 11.1493467600754386 11.9515835786203404 7.7838675741543772 Ga
atom 14.4161733799146816 0.9962314104922644 7.8622215850956536 Ga
atom 14.4446044027796461 0.7864973277212166 2.6153133273378830 Ga
atom 3.3248704298028424 14.8328866579309810 12.9741488197277395 Ga
atom 3.1771580325419047 14.8061400693754273 7.8326293000564666 Ga
atom 3.2542647474496382 14.9130545496970086 2.5851995024011458 Ga
atom 4.9095587989880087 12.0411588498701789 13.0383120869549742 Ga
atom 4.8683893578015827 12.0560345692302562 7.9060484610310384 Ga
atom 4.7885240802106193 12.0264389589919301 2.6110266639287794 Ga
atom 6.3900177582085576 9.3025980205739955 13.0352485624271051 Ga
atom 6.3800067848642543 9.3002771875335029 7.8746911565293871 Ga
atom 6.3854725238869419 9.2507888001908913 2.6705049638902381 Ga
atom 8.1133652853118452 11.9975311136271845 2.5205935331262230 Ga
atom 9.6807705132424715 9.1948186609398608 13.0230228694762964 Ga
atom 9.6134926255524267 9.2824435789714901 7.7645318813829185 Ga
atom 9.7383322381408188 9.4097160051312692 2.5800054457394799 Ga
atom 11.2451065325826125 6.4399108927967106 12.9097742139547496 Ga
atom 11.1878462505659595 6.3693849102444897 7.8959640029909703 Ga
atom 11.1643248659674779 6.5516605122995930 2.5378616072855036 Ga
atom 12.7148763299022178 3.5880412626135083 13.0644424512282615 Ga
atom 12.6981770373216314 3.6291144812948288 7.7174763906845785 Ga
atom 12.8187190263675959 3.5514879088084936 2.5165964646478507 Ga
atom 14.3114151123872695 0.8519579242708192 13.0456435689456605 Ga
atom 6.3543763205343211 7.3960225521118899 5.2853391481960186 Ga
atom 7.9572817022747708 4.7947254529950918 0.0913786888165191 Ga
atom 7.8238902660931133 4.6386500703227753 10.4525660873335156 Ga
atom 7.9896179790490880 4.6351578253302339 5.1487824021423041 Ga
atom 9.6701398629593118 1.9624478912062091 0.0487521405037152 Ga
atom 9.3858111103700388 1.8676291590405614 10.4543068020449006 Ga
atom 9.5732610745357860 1.7503492868567843 5.2001745307965264 Ga
atom 0.0560679552592741 12.9859791166700234 15.5079401563229329 Ga
atom 0.0218178523839421 12.8705600508040252 10.4534617327738282 Ga
atom 0.0045969640991683 12.8219043547229017 5.1795002910107337 Ga
atom 1.6499602411280825 10.2052269706806769 0.0243257711234647 Ga
atom 1.7459889374474802 10.3716335855541217 10.3756364963254022 Ga
atom 1.5497537010556928 15.6009438187876253 15.5880030098174291 Ga
atom 1.5996901260079075 15.7422492862599874 10.5274554348378615 Ga
atom 1.4874271501516727 15.7168210250489295 5.2559359731963653 Ga
atom 3.2413159332611423 12.8362350480756202 15.4738996341769148 Ga
atom 3.2887927554277194 12.9942107899546926 10.4041218771304536 Ga
atom 3.1968176925761842 13.0277590683417586 5.2030125004222105 Ga
atom 4.9316110007815910 10.1612764559615929 0.0692983242294945 Ga
atom 4.7911111990711559 10.1538340207890165 10.3644488309157889 Ga
atom 4.8423657805023259 10.2371542559718254 5.1937880493187283 Ga
atom 6.4330651547846740 7.6224709819995171 15.5463806203030597 Ga
atom 6.4231762518079067 7.3752901240993580 10.3383801117712668 Ga
atom 15.9351168071818954 7.5048272481842346 10.3850994470767279 Ga
atom 0.1278485136517225 7.3550338831635456 5.2530314948239756 Ga
atom 1.6250894013678494 4.6830905252522044 0.0416179458355500 Ga
atom 1.6085935716868689 4.6081918851514283 10.3624267204784317 Ga
atom 1.6561535550857496 4.5791957343518543 5.2358231523562857 Ga
atom 3.1318700425762884 1.8925297995745243 0.0131300463973333 Ga
atom 3.1474005126722138 1.8218947373686547 10.3774176079405773 Ga
atom 3.2806666272778280 1.8041748321492797 5.1709033017598145 Ga
atom 0.0280167541144636 1.8636760450629439 15.5279681452817719 Ga
atom 15.8821206812884874 1.9099279332389765 10.5731789729075345 Ga
atom 16.0002068629247489 1.8819087031237332 5.2247784782398652 Ga
atom 1.5787069417043904 10.1182725986844382 5.1460348835919945 Ga
atom 3.1641694251944261 7.3922001067326031 15.4790551349187471 Ga
atom 3.1566628104547818 7.4723431300165162 10.2753680273298844 Ga
atom 3.2363281570935727 7.2816031562083046 5.2583131893733901 Ga
atom 4.6627790030199749 4.7638274961752156 15.4706098169049646 Ga
atom 4.6915250312205616 4.6188797916056972 10.4564964427290015 Ga
atom 4.9331494936911824 4.7487723679021734 5.1545410480902367 Ga
atom 6.3992244850202979 1.9051730013742307 0.1815027544866798 Ga
atom 6.2610579968181952 1.7622206169037427 10.3510273743494299 Ga
atom 6.3472199534452978 1.7543694707726587 5.1822658484915793 Ga
atom 0.1772495471500611 7.5090938994693328 15.5920626059622034 Ga
atom 14.5127085297248843 10.1286801986467303 5.3561645540684637 Ga
atom 7.9460580421296489 15.7798224113130097 0.0858301349184300 Ga
atom 7.9762903518052646 15.7784126740259598 10.5564102670681201 Ga
atom 7.9897280234308798 15.5890711268248747 5.3335668153392950 Ga
atom 9.6128349337842476 12.8870617243141616 15.4276547666162447 Ga
atom 9.6849776285781317 13.1479383316771727 10.4132955432541401 Ga
atom 9.7379592451414680 12.9466726446493929 5.2704367540932608 Ga
atom 11.1465868731906959 10.0822102109930896 0.0090102923623412 Ga
atom 11.1086679152442436 10.2165381090001475 10.4151182673177551 Ga
atom 11.1705187983412628 10.0814668022929634 5.1961412928959785 Ga
atom 12.9707335347687067 7.4073182045870469 15.6116630162686434 Ga
atom 12.7244482852167984 7.4419249187829681 10.3262736871432512 Ga
atom 14.3748438669060636 15.6730273324336196 0.0045804938120426 Ga
atom 14.4215405989387886 15.6712834823465545 10.3072474164925012 Ga
atom 14.3530246778497137 15.6856799050541973 5.3563598558935430 Ga
atom 11.2037677254905912 15.6889404255292728 15.5254658040278102 Ga
atom 11.1683838380176219 15.7819886343561393 10.4671784295358794 Ga
atom 11.2653125614217071 15.6649122849501268 5.1903201787771467 Ga
atom 12.6883438213603110 12.8627982074746345 15.5611326114618915 Ga
atom 12.7987255015230232 12.9233253151720024 10.4808749351773169 Ga
atom 12.7879807876179203 13.0188425925442051 5.2640981749638325 Ga
atom 14.4167267948302005 10.2641297166810777 15.5729911096028300 Ga
atom 14.3447174512458062 10.1702607198887751 10.4471467712996198 Ga
atom 7.9942463112789586 10.1547236612994389 10.4260785484479896 Ga
atom 8.0577993645507693 10.1178300871453306 5.1766057873503648 Ga
atom 9.7158556972075161 7.3333431866937451 0.0362267013018592 Ga
atom 9.4416742266158149 7.4523493318530543 10.2880000190573231 Ga
atom 9.6116484354160932 7.3680243977744535 5.1988995378089378 Ga
atom 11.1496314803235563 4.6165431139405779 0.1481729442290079 Ga
atom 11.0613041679707020 4.5939329583171045 10.3677509449499450 Ga
atom 11.1506196024595408 4.5423783554663544 5.1916149399713243 Ga
atom 12.8259514947450270 1.8323068500376911 15.5118827136581849 Ga
atom 12.6850256519355593 1.8497549118316086 10.4340427091304555 Ga
atom 12.9236191111954497 1.8153410910954841 5.1093025418892832 Ga
atom 12.7571586721188162 7.2363617090633596 5.2738305096680378 Ga
atom 14.3137896876315249 4.6148613657873634 15.5949057047636028 Ga
atom 14.3179702143041609 4.7314983189511794 10.3802127057430624 Ga
atom 14.5039608742303532 4.6631036279397104 5.1974988629990886 Ga
atom 4.9084052929548090 15.6766557561877793 0.0129962263779430 Ga
atom 4.6986818505133208 15.7039492193996377 10.3997130720110640 Ga
atom 8.0700681801397067 10.1310944771825913 0.0789537610364787 Ga
atom 6.4898882700425711 12.9118957277874298 5.2262488236795592 Ga
atom 6.4125766428467017 13.0671483998382918 10.5261848156233153 Ga
atom 6.5105368602719320 12.9683815538969505 0.0552222071428766 Ga
atom 4.7940178712613424 15.5722064857967837 5.2214577323178464 Ga
atom 3.2057260282268354 9.3258216152582456 9.7049566959160067 N
atom 3.2586412028053080 9.3907804150613607 15.0045176660699742 N
atom 1.5098285357359622 11.9922939217402025 4.5487113501807466 N
atom 1.7394583958799190 12.0754653446890003 9.7731117547330832 N
atom 1.6846499437805567 11.9985719742863122 14.9562058896806569 N
atom 15.8525440735941920 14.7168786171317372 4.6374022379855937 N
atom 3.3910622899429099 9.2276200632186551 4.6012348445343800 N
atom 4.8547744414219860 6.6184044806574791 14.9142572149789494 N
atom 4.8314351753681040 6.3970270213343277 9.8128416216984178 N
atom 4.9393774277767148 6.4832460233371396 4.4408300989525831 N
atom 6.2609061177165062 3.7574623533600193 15.1291727742751760 N
atom 6.2698542852378853 3.6121013391165642 9.8836623994082586 N
atom 8.0629872232133337 6.5335462510806881 15.0446744957690779 N
atom 8.0002947543843490 6.3832769636163444 9.6997769226465991 N
atom 8.0251837026329031 6.4144282454988328 4.4655995366151249 N
atom 9.4990803745517258 3.9563724340368083 14.9698940959199938 N
atom 9.5308245440588930 3.6484909887318624 9.7788122382113887 N
atom 9.5893460901062806 3.6069814229311028 4.4983068240498936 N
atom 11.1991560353656485 0.9415143919019016 14.9155076944714331 N
atom 11.0793261926804139 1.0162814060833918 9.7814124721669202 N
atom 11.2600100300680914 0.9338292443668118 4.5343087348859559 N
atom 15.9113857410742128 14.8353320678163367 14.9600279895780357 N
atom 0.0066008574722341 14.6046889431625733 9.8141835345167898 N
atom 3.0423452617317723 3.7042237840700638 9.8146194668216715 N
atom 3.2492328068618264 3.7023815552115753 4.5701541106717114 N
atom 4.8246590529027529 1.0394314060384631 15.0086007039109077 N
atom 4.6917380287064301 0.8050709874480164 9.7691362135770952 N
atom 4.8420547819934363 0.7415072079102857 4.3962320440416018 N
atom 15.9656811725128058 3.8380375157945008 15.0264675147271536 N
atom 15.9433511962020926 3.7364290147511485 9.7310823683037331 N
atom 0.0865094578902574 3.6739531548343587 4.4121340994768214 N
atom 1.5983358931003608 0.8194388886756141 14.9697443752041366 N
atom 1.3641800159987423 1.0149755628334800 9.7733698442567221 N
atom 1.4948415659457452 0.9907936612414856 4.5513848391205185 N
atom 6.3656575817777439 3.6506038247436448 4.5045865788576949 N
atom 8.0416688735279376 0.9545862194346693 15.2004804931391977 N
atom 7.7667343374890310 0.8176074013666965 9.8792298704537060 N
atom 7.9359488535515457 0.8150912811513924 4.5680178040384778 N
atom 0.0478245966853834 9.2918965980420687 14.8643553222552072 N
atom 0.1073714654843794 9.3604948973671309 9.8682648494879519 N
atom 0.1108131644018909 9.2118135618666415 4.5618822454252204 N
atom 1.7085023642937307 6.5471558617293644 14.9224448031143258 N
atom 1.5610637033690391 6.3742601156897845 9.7770970915693667 N
atom 1.7462875151539199 6.4233483500601594 4.5781408658730598 N
atom 3.2277774313957428 3.7209526761080829 14.9489621428591999 N
atom 11.2775445196840671 11.9936037365628874 4.5944296872818109 N
atom 12.7549853126402386 9.2150786282156520 14.9262626402243921 N
atom 12.8060311097451276 9.2628452411395443 9.7356164143930943 N
atom 12.8850609158015477 9.0950759421645841 4.6878370614870466 N
atom 14.4938341682181697 6.4132123555647382 14.9541443728226930 N
atom 14.3595494769991650 6.5139963119519946 9.8123402778223809 N
atom 14.4930824028287848 6.5511034447719370 4.5772968522585655 N
atom 6.4928416043417245 14.7884672813408056 15.2005249962385491 N
atom 6.3748467168541998 14.8710501255535767 9.7706993194151543 N
atom 6.3570732926642606 14.6674164005082535 4.6194215906980469 N
atom 8.0244881645308208 11.8610163316208457 14.9641880424497593 N
atom 8.0353758079094320 12.1174701572175341 9.7603594330111871 N
atom 12.7484935172526157 14.7170521706099660 14.9364292944939177 N
atom 12.7698011738773545 14.8731917977626864 9.8439121122739088 N
atom 12.8882088757795739 14.7747852208830839 4.5309791097333916 N
atom 14.4831393960759787 11.9793395469906478 15.1036717038082866 N
atom 14.4133564917606876 12.0416282993117072 9.8441638094308335 N
atom 14.3432930668768552 11.9797605687850002 4.5917243345942751 N
atom 9.5582956432873782 14.7888197093624427 15.0132664691800297 N
atom 9.5350756661096909 15.0156484867861391 9.8340710989810898 N
atom 9.6630374941549171 14.7766935235568333 4.4861114856309321 N
atom 11.2670215864528060 11.8272655574433116 14.9079007081130595 N
atom 11.1805322773939011 12.0993389959861855 9.7915326843950918 N
atom 14.3060048590127025 0.9231552667660267 9.7012294882831700 N
atom 14.4465098847846427 0.8658373436336989 4.5568969472665151 N
atom 3.2127804653718188 14.7987814584321455 14.8880066690212498 N
atom 3.1528089185397841 14.6988995922200338 9.8199967273692703 N
atom 3.0582990157827270 14.9351919413291565 4.5073877228975556 N
atom 4.8287206401947120 12.0457720857156687 14.9834136130878264 N
atom 4.8683797861843141 12.1258468030247570 9.9178345544844255 N
atom 4.7736527866714651 12.0123420270600114 4.5967292974737175 N
atom 6.3426830787606905 9.2836656946071248 14.9500366631377322 N
atom 6.4140190178071501 9.3017563045029839 9.7298457148419892 N
atom 6.4697380655638392 9.2316037254370240 4.5639617642817276 N
atom 8.1361405663069810 11.9468275146941050 4.6081989669312220 N
atom 9.6980599703778019 9.1941816816986730 14.8940988611268850 N
atom 9.6430653769243992 9.3416752582105271 9.6871513496420363 N
atom 9.6867724947439182 9.1999018906532122 4.5533035063725587 N
atom 11.2466279119778410 6.3567621259251297 14.9458901325146023 N
atom 11.2353563588061238 6.4641143264825942 9.8314522688154131 N
atom 11.1561583153069588 6.3254022936088106 4.4584056604472790 N
atom 12.7702121349621844 3.7494366434433402 14.9455712300801746 N
atom 12.7504886725490039 3.8104541538936383 9.7361238204381841 N
atom 12.8716726209964119 3.7980029546809595 4.5127084204873444 N
atom 14.4280167801129782 0.8706175298446461 14.9418541256071631 N
atom 6.3971621638475291 7.4087499306757323 1.9467402846544481 N
atom 7.9137079915268123 4.7064446079840332 12.3314407618812556 N
atom 7.8799384619357795 4.6899188667420821 7.0968357672998579 N
atom 7.9879940301336516 4.7124251511812734 1.9363186424830205 N
atom 9.5136193177846966 1.8324039504264109 12.3614325164226884 N
atom 9.6319227726783314 1.9062002922528525 7.1215723141589828 N
atom 9.7103202947177039 1.9074766389619811 1.9988836849291038 N
atom 0.1056028400331511 12.9618375500111771 12.4536659521833446 N
atom 0.0791719897936095 12.8728660708307707 7.2109682174129404 N
atom 0.0537871158508025 12.8787261285427483 1.9550158874951720 N
atom 1.7354751133661681 10.1256316841562768 12.3555057006290401 N
atom 1.5869553760988824 10.0625178789576086 7.1910741814145709 N
atom 1.6351576900904707 15.6730560240191394 12.4897570474645629 N
atom 1.7166336881445390 15.8451869470220075 7.2089726498924112 N
atom 1.4253294635153295 15.6861188442262698 1.8997460761868949 N
atom 3.3507278720888527 12.8689441270640863 12.2921074874093481 N
atom 3.3684344954318717 12.9792758772658683 7.1538348606526956 N
atom 3.2596119509622152 12.9229073269009618 1.9056581969016673 N
atom 4.7909318895441944 10.1315716371575864 12.4371044419161318 N
atom 4.8768066305407061 10.2797463879938960 7.1569878522387258 N
atom 4.8603689861556285 10.2026679109137817 1.9846532233893615 N
atom 6.4162901701770059 7.4154695537954831 12.2895382943626323 N
atom 6.5424515558928213 7.4636979426134191 7.3161868422585812 N
atom 0.0050527272039624 7.2922151360607881 7.2061873857425205 N
atom 0.0016085246674313 7.3861732583711044 1.9819434905238780 N
atom 1.5085377434434315 4.6612215919738409 12.4004696905870286 N
atom 1.5620128293210354 4.6905368313752343 7.2211225907477647 N
atom 1.7074985606041397 4.6790609349670111 1.9150626855544925 N
atom 3.1407536952035335 1.8661042371059062 12.3930002357750411 N
atom 3.2365077622325078 1.8866605979465296 7.1223634287672244 N
atom 3.2008771527600581 1.8441145397892234 2.0252856471252816 N
atom 15.9049538486406572 1.8239084873450915 12.5329747846714561 N
atom 15.9964805703985693 1.9341685104764126 7.2309300062857869 N
atom 15.9940934889566346 1.7530532471548732 1.8376423723921933 N
atom 1.6503450230073393 10.0469832266447732 2.0708845529966968 N
atom 3.2302532755581970 7.3280120355989551 12.3095962800951977 N
atom 3.2140897689920322 7.3470214724814351 7.2319161677056121 N
atom 3.2323853952319528 7.3977197814871705 1.8414223748718315 N
atom 4.8404202303207873 4.5799035162450288 12.4450838805910777 N
atom 4.7715754730815929 4.6863473229066068 7.1104299842025700 N
atom 4.6906120479782683 4.6767140776493976 1.8857588437817754 N
atom 6.3755453670808580 1.8225348181714509 12.4865417862331700 N
atom 6.4575353155509738 1.8968111529615082 7.1795198794911146 N
atom 6.4441479782758933 1.8198488595445375 1.9787920026604755 N
atom 16.0017990486567889 7.4755642465614764 12.2888125966568769 N
atom 14.5288085220683865 10.1251683034140374 1.9263067405034224 N
atom 8.0110364188349141 15.7409170999364942 12.4972074319409305 N
atom 8.0847509866613034 15.7250746531842189 7.2313906818647817 N
atom 8.0343898181395659 15.6185124169897520 2.0161200381897042 N
atom 9.4769025669792359 12.9122591567072540 12.4586594656217020 N
atom 9.6489722693393727 12.8530139506843977 7.2694850633470001 N
atom 9.6551402741769987 12.8703403043645217 1.8670523175786717 N
atom 11.0857086032162595 10.3240110248036689 12.3036017644228668 N
atom 11.1933040879238064 10.1321385097250438 7.0949789132334438 N
atom 11.2845928294425182 10.1165724983548984 1.9203343105989645 N
atom 12.8064184038722004 7.4247773242720347 12.3109393191095471 N
atom 12.8770578740998900 7.3265533907161231 7.1699251532304347 N
atom 14.3438975361654286 15.6690704151204034 12.2723280587056163 N
atom 14.3758676614790293 15.6795624439257324 7.2709516826111873 N
atom 14.5217063059015814 15.7512617936244528 1.9192006162643875 N
atom 11.1721996866332027 15.6627741079332399 12.3945928051010146 N
atom 11.2396102019258812 15.7133503699605921 7.0898139510846274 N
atom 11.2972305169112790 15.7444575833345155 1.8299038373829239 N
atom 12.8174466374922122 12.9676651170960131 12.3856549645220859 N
atom 12.9011029539337532 12.9779257296673425 7.2427983583304423 N
atom 12.7301808381033918 12.8759980687317785 1.8693498814031047 N
atom 14.3872910333436632 10.2124180150591020 12.4002060694468579 N
atom 14.3974785208369216 10.0557744746176354 7.2020345097421377 N
atom 7.9197334479295156 10.1183457566779982 7.0720263190750829 N
atom 8.0357537680340343 10.2104371492346040 2.0397441780697494 N
atom 9.5251514912115969 7.3062625006501154 12.1841224511470863 N
atom 9.6983667756897596 7.3849910044925791 7.2514979887315736 N
atom 9.6651060082984106 7.5674610029528813 1.9416424159465411 N
atom 11.1605667037983611 4.6065577982658894 12.3597611022517491 N
atom 11.1877065093254480 4.5739300554216760 7.0996443655091284 N
atom 11.2392525084031369 4.6339475263665211 2.0902537122825073 N
atom 12.6155386938988610 1.7435535948225038 12.3190745780515023 N
atom 12.8512180489097805 1.8395502302078734 6.9837146696807872 N
atom 12.8942055040837715 1.8978081487835545 1.8638742828407040 N
atom 12.7361221188478968 7.3634200546334272 2.0582061745998068 N
atom 14.3326617390177500 4.5743159610218243 12.4181538910589353 N
atom 14.4070996949004080 4.6438106807068618 7.1221131253850061 N
atom 14.4136590831823579 4.5921022827689590 2.0050493984860287 N
atom 4.8801277354523629 15.7412462538985682 12.3399131063344818 N
atom 4.8070262856035599 15.7850722833514325 7.2815198631683602 N
atom 4.8859030916669308 15.6953325991746464 1.8801705189013282 N
atom 6.4979562464604212 12.8536089177700443 12.5455700578437224 N
atom 6.5544534976485558 12.9924603553100741 7.2347693288653554 N
atom 6.4479854897909794 12.9687132988072165 1.9826389237755042 N
atom 8.0746599426279975 10.1958039214982907 12.4154986006599248 N
